!!! Generated by ASE !!!
&FORCE_EVAL
   METHOD Quickstep
   STRESS_TENSOR ANALYTICAL
   &DFT
      CHARGE 0
      BASIS_SET_FILE_NAME BASIS_MOLOPT
      POTENTIAL_FILE_NAME POTENTIAL
      &MGRID
         NGRIDS 4
         REL_CUTOFF 30
         CUTOFF [eV] 2.500000000000000000e+02
      &END MGRID
      &QS
         METHOD GPW
         EPS_DEFAULT 1.0E-12
         EXTRAPOLATION ASPC
      &END QS
      &SCF
         SCF_GUESS RESTART
         EPS_SCF 1.0E-8
         CHOLESKY INVERSE
         MAX_SCF 20
         &DIAGONALIZATION
            ALGORITHM STANDARD
         &END DIAGONALIZATION
         &MIXING
            METHOD  BROYDEN_MIXING
            ALPHA   0.05
            BETA    1.5
            NBROYDEN 16
         &END MIXING
      &END SCF
      &XC
         &XC_FUNCTIONAL PBE
            &PBE
            &END PBE
         &END XC_FUNCTIONAL
         &VDW_POTENTIAL
            POTENTIAL_TYPE PAIR_POTENTIAL
            &PAIR_POTENTIAL
               PARAMETER_FILE_NAME dftd3.dat
               TYPE DFTD3
               CALCULATE_C9_TERM .TRUE.
               REFERENCE_C9_TERM .TRUE.
               REFERENCE_FUNCTIONAL PBE
            &END PAIR_POTENTIAL
         &END VDW_POTENTIAL
      &END XC
      &LS_SCF
         MAX_SCF 20
      &END LS_SCF
   &END DFT
   &PRINT
      &STRESS_TENSOR ON
      &END STRESS_TENSOR
   &END PRINT
   &SUBSYS
      &COORD
         P 6.974586117819313813e+00 1.217947389785113188e+01 1.212456414403030180e+01
         O 6.934316863762197691e+00 1.076194474219880703e+01 1.177871798707257334e+01
         O 8.111328884709470444e+00 1.256508878366819815e+01 1.335270818654529279e+01
         O 6.985058660793590057e+00 1.332560960824261542e+01 1.104715111369555203e+01
         O 5.781887448057916323e+00 1.258199276268284272e+01 1.285428477479325871e+01
         H 8.055020137880536168e+00 1.196476316591995648e+01 1.398117871283995051e+01
         H 6.234256723413494683e+00 1.377046869346252933e+01 1.094334975998462411e+01
         H 4.999189926550141827e+00 1.184633177735272547e+01 1.279643288283536506e+01
         O 1.241353482077715675e+01 1.283335664546291000e+01 1.897044614297467291e+01
         H 1.322458941495316864e+01 1.260607941758991757e+01 1.959540844001880444e+01
         H 1.194759770849099745e+01 1.343385638804526749e+01 1.952281914816791542e+01
         O 5.349626173609047797e+00 1.086566273981918584e+01 1.953920763317376696e+01
         H 5.485091720072820642e+00 1.155972485398880600e+01 2.021977290030835661e+01
         H 5.480575974980119724e+00 1.136458270798772929e+01 1.871931695877911750e+01
         O 1.328852289124928987e+01 5.499804411919527958e+00 4.989570539665412419e+00
         H 1.396901858653422224e+01 5.006471864641146574e+00 5.345053435674813613e+00
         H 1.284553952281691203e+01 5.958290839266423333e+00 5.786074874962884529e+00
         O 1.413441999423928408e+01 1.679431446141096274e+01 1.179545469392588153e+01
         H 1.400680878306638988e+01 1.715244788955437727e+01 1.265574551189016184e+01
         H 1.335387170974691706e+01 1.642979456308348674e+01 1.148128492658737798e+01
         O 1.522678812083308131e+01 1.374432124456970783e+01 9.399797862414045468e+00
         H 1.582923664475517711e+01 1.318195180267108313e+01 9.064359780980245418e+00
         H 1.522549587327560161e+01 1.316442425907444935e+01 1.044977883271199381e+01
      &END COORD
      &CELL
         PERIODIC XYZ
         A 1.783213299999999890e+01 0.000000000000000000e+00 0.000000000000000000e+00
         B 0.000000000000000000e+00 1.915249700000000033e+01 0.000000000000000000e+00
         C 0.000000000000000000e+00 0.000000000000000000e+00 2.321405200000000235e+01
      &END CELL
      &KIND O
         BASIS_SET SZV-MOLOPT-GTH
         POTENTIAL GTH-PBE
      &END KIND
      &KIND H
         BASIS_SET SZV-MOLOPT-GTH
         POTENTIAL GTH-PBE
      &END KIND
      &KIND P
         BASIS_SET SZV-MOLOPT-GTH
         POTENTIAL GTH-PBE
      &END KIND
   &END SUBSYS
&END FORCE_EVAL
&GLOBAL
   RUN_TYPE MD
   PREFERRED_FFT_LIBRARY FFTW3
   FFTW_PLAN_TYPE PATIENT
   SAVE_MEM T
   PREFERRED_DIAG_LIBRARY SL
   PROJECT equil
   PRINT_LEVEL LOW
   &DBCSR
      MM_DRIVER BLAS
   &END DBCSR
&END GLOBAL
