!!! Generated by ASE !!!
&FORCE_EVAL
   METHOD Quickstep
   STRESS_TENSOR ANALYTICAL
   &DFT
      CHARGE 0
      BASIS_SET_FILE_NAME BASIS_MOLOPT
      POTENTIAL_FILE_NAME POTENTIAL
      &MGRID
         NGRIDS 4
         REL_CUTOFF 30
         CUTOFF [eV] 2.500000000000000000e+02
      &END MGRID
      &QS
         METHOD GPW
         EPS_DEFAULT 1.0E-12
         EXTRAPOLATION ASPC
      &END QS
      &SCF
         SCF_GUESS RESTART
         EPS_SCF 1.0E-8
         CHOLESKY INVERSE
         MAX_SCF 20
         &DIAGONALIZATION
            ALGORITHM STANDARD
         &END DIAGONALIZATION
         &MIXING
            METHOD  BROYDEN_MIXING
            ALPHA   0.05
            BETA    1.5
            NBROYDEN 16
         &END MIXING
      &END SCF
      &XC
         &XC_FUNCTIONAL PBE
            &PBE
            &END PBE
         &END XC_FUNCTIONAL
         &VDW_POTENTIAL
            POTENTIAL_TYPE PAIR_POTENTIAL
            &PAIR_POTENTIAL
               PARAMETER_FILE_NAME dftd3.dat
               TYPE DFTD3
               CALCULATE_C9_TERM .TRUE.
               REFERENCE_C9_TERM .TRUE.
               REFERENCE_FUNCTIONAL PBE
            &END PAIR_POTENTIAL
         &END VDW_POTENTIAL
      &END XC
      &LS_SCF
         MAX_SCF 20
      &END LS_SCF
   &END DFT
   &PRINT
      &STRESS_TENSOR ON
      &END STRESS_TENSOR
   &END PRINT
   &SUBSYS
      &COORD
         P 6.912944415834135548e+00 1.214065352790493257e+01 1.212152155075775539e+01
         O 6.912358439268296628e+00 1.077333455431049281e+01 1.183204262055337352e+01
         O 8.086159366121778547e+00 1.256540236956037049e+01 1.334187880569203877e+01
         O 6.830041056891106521e+00 1.322738355203996363e+01 1.097958993056905186e+01
         O 5.739222234329005801e+00 1.258102959213188221e+01 1.320058103744487710e+01
         H 6.072044816519683863e+00 1.046927727734969515e+01 1.347144092312965569e+01
         H 4.469215897261259229e+00 1.252170312934661922e+01 1.017477904956795776e+01
         H 3.269514152011801400e+00 1.027945948672186383e+01 1.207408392565785960e+01
         O 1.470918677676815278e+01 1.417330520503924340e+01 1.959239587299175511e+01
         H 1.111302702108053886e+01 1.142856104351464452e+01 1.940457096574701978e+01
         H 9.221412532657492278e+00 1.239875700828762106e+01 1.897967365724096922e+01
         O 5.264727177184709284e+00 1.070163421039623586e+01 1.952315851411623626e+01
         H 3.855723205694983946e+00 1.046334995740419593e+01 1.960398017165089257e+01
         H 3.557615053580359010e+00 9.791952331256499775e+00 1.808690042129491715e+01
         O 1.346444875502193739e+01 5.587216461445097870e+00 4.709281554517695589e+00
         H 1.273448151692858765e+01 3.574514057553416002e+00 4.273104921260858724e+00
         H 1.063302606086964630e+01 4.682615853771860515e+00 5.380051027109484352e+00
         O 1.375806482150094823e+01 1.684433684180280366e+01 1.176630314700021707e+01
         H 1.197296735433018355e+01 1.577924189375159436e+01 1.165456519825298898e+01
         H 1.116746510531346992e+01 1.506768384844077069e+01 1.052733319685109947e+01
         O 1.514479585036287546e+01 1.370038796781205193e+01 9.327592704053563111e+00
         H 1.392462699946889515e+01 1.167977672919547416e+01 8.542003343707200713e+00
         H 1.383841608262073741e+01 1.173545945696458226e+01 9.823627064944931320e+00
      &END COORD
      &CELL
         PERIODIC XYZ
         A 1.783213299999999890e+01 0.000000000000000000e+00 0.000000000000000000e+00
         B 0.000000000000000000e+00 1.915249700000000033e+01 0.000000000000000000e+00
         C 0.000000000000000000e+00 0.000000000000000000e+00 2.321405200000000235e+01
      &END CELL
      &KIND O
         BASIS_SET SZV-MOLOPT-GTH
         POTENTIAL GTH-PBE
      &END KIND
      &KIND H
         BASIS_SET SZV-MOLOPT-GTH
         POTENTIAL GTH-PBE
      &END KIND
      &KIND P
         BASIS_SET SZV-MOLOPT-GTH
         POTENTIAL GTH-PBE
      &END KIND
   &END SUBSYS
&END FORCE_EVAL
&GLOBAL
   RUN_TYPE MD
   PREFERRED_FFT_LIBRARY FFTW3
   FFTW_PLAN_TYPE PATIENT
   SAVE_MEM T
   PREFERRED_DIAG_LIBRARY SL
   PROJECT prod
   PRINT_LEVEL LOW
   &DBCSR
      MM_DRIVER BLAS
   &END DBCSR
&END GLOBAL
