!!! Generated by ASE !!!
&FORCE_EVAL
   METHOD Quickstep
   STRESS_TENSOR ANALYTICAL
   &DFT
      CHARGE 0
      BASIS_SET_FILE_NAME BASIS_MOLOPT
      POTENTIAL_FILE_NAME POTENTIAL
      &MGRID
         NGRIDS 4
         REL_CUTOFF 30
         CUTOFF [eV] 2.500000000000000000e+02
      &END MGRID
      &QS
         METHOD GPW
         EPS_DEFAULT 1.0E-12
         EXTRAPOLATION ASPC
      &END QS
      &SCF
         SCF_GUESS RESTART
         EPS_SCF 1.0E-8
         CHOLESKY INVERSE
         MAX_SCF 20
         &DIAGONALIZATION
            ALGORITHM STANDARD
         &END DIAGONALIZATION
         &MIXING
            METHOD  BROYDEN_MIXING
            ALPHA   0.05
            BETA    1.5
            NBROYDEN 16
         &END MIXING
      &END SCF
      &XC
         &XC_FUNCTIONAL PBE
            &PBE
            &END PBE
         &END XC_FUNCTIONAL
         &VDW_POTENTIAL
            POTENTIAL_TYPE PAIR_POTENTIAL
            &PAIR_POTENTIAL
               PARAMETER_FILE_NAME dftd3.dat
               TYPE DFTD3
               CALCULATE_C9_TERM .TRUE.
               REFERENCE_C9_TERM .TRUE.
               REFERENCE_FUNCTIONAL PBE
            &END PAIR_POTENTIAL
         &END VDW_POTENTIAL
      &END XC
      &LS_SCF
         MAX_SCF 20
      &END LS_SCF
   &END DFT
   &PRINT
      &STRESS_TENSOR ON
      &END STRESS_TENSOR
   &END PRINT
   &SUBSYS
      &COORD
         P 6.978019999999998113e+00 1.217838599999999971e+01 1.212241800000000147e+01
         O 6.945258999999999183e+00 1.073479599999999934e+01 1.174652800000000141e+01
         O 8.011599000000000359e+00 1.262587599999999988e+01 1.325077800000000039e+01
         O 7.063759999999999373e+00 1.325409600000000054e+01 1.095184800000000003e+01
         O 5.600009999999998378e+00 1.261700599999999994e+01 1.278572800000000065e+01
         H 8.038259000000000043e+00 1.197629599999999961e+01 1.397445800000000027e+01
         H 6.243908999999997711e+00 1.377602599999999988e+01 1.093323800000000112e+01
         H 4.999999999999999112e+00 1.184756600000000049e+01 1.279594800000000099e+01
         O 1.261029999999999873e+01 1.300388599999999961e+01 1.896081399999999917e+01
         H 1.322542899999999833e+01 1.260600999999999949e+01 1.959439800000000176e+01
         H 1.194599499999999992e+01 1.343510700000000035e+01 1.951836600000000033e+01
         O 5.342184999999997963e+00 1.089198200000000050e+01 1.953461000000000070e+01
         H 5.488871999999997975e+00 1.156648899999999891e+01 2.021405200000000235e+01
         H 5.489331999999998324e+00 1.136302799999999991e+01 1.870119400000000098e+01
         O 1.324336099999999661e+01 5.553226999999999691e+00 5.000000000000000000e+00
         H 1.395433299999999832e+01 5.000000000000000000e+00 5.355779000000000067e+00
         H 1.284506799999999771e+01 5.956636999999999738e+00 5.785329000000000832e+00
         O 1.421450799999999859e+01 1.672117699999999729e+01 1.181322000000000116e+01
         H 1.400723099999999732e+01 1.715249700000000033e+01 1.265531100000000109e+01
         H 1.335261699999999863e+01 1.643036700000000039e+01 1.148051600000000150e+01
         O 1.507918299999999689e+01 1.351600299999999955e+01 9.559115000000000251e+00
         H 1.583213299999999890e+01 1.317656399999999906e+01 9.053185000000000926e+00
         H 1.521711299999999767e+01 1.316239399999999904e+01 1.045021200000000050e+01
      &END COORD
      &CELL
         PERIODIC XYZ
         A 1.783213299999999890e+01 0.000000000000000000e+00 0.000000000000000000e+00
         B 0.000000000000000000e+00 1.915249700000000033e+01 0.000000000000000000e+00
         C 0.000000000000000000e+00 0.000000000000000000e+00 2.321405200000000235e+01
      &END CELL
      &KIND O
         BASIS_SET SZV-MOLOPT-GTH
         POTENTIAL GTH-PBE
      &END KIND
      &KIND H
         BASIS_SET SZV-MOLOPT-GTH
         POTENTIAL GTH-PBE
      &END KIND
      &KIND P
         BASIS_SET SZV-MOLOPT-GTH
         POTENTIAL GTH-PBE
      &END KIND
   &END SUBSYS
&END FORCE_EVAL
&GLOBAL
   RUN_TYPE GEO_OPT
   PREFERRED_FFT_LIBRARY FFTW3
   FFTW_PLAN_TYPE PATIENT
   SAVE_MEM T
   PREFERRED_DIAG_LIBRARY SL
   PROJECT Solvate-H3PO4
   PRINT_LEVEL LOW
   &DBCSR
      MM_DRIVER BLAS
   &END DBCSR
&END GLOBAL
