          98
  Built with Packmol                                             
  P            5.242917        4.802130        4.802300
  O            5.210158        3.358540        4.426410
  O            6.276497        5.249620        5.930660
  O            5.328658        5.877840        3.631730
  O            3.864908        5.240750        5.465610
  H            6.303158        4.600040        6.654340
  H            4.508807        6.399770        3.613120
  H            3.264898        4.471310        5.475830
  O            5.684494        7.489717        8.327583
  H            6.234580        6.770114        7.984517
  H            6.267414        8.262813        8.302175
  O            2.405984        4.209069        9.295121
  H            1.635812        4.242190        9.881514
  H            3.092446        4.687813        9.782657
  O            8.616902        4.973913        3.752889
  H            7.976640        5.081321        3.034107
  H            9.429019        4.696614        3.303792
  O            1.788404        4.431422        3.434437
  H            1.051282        4.159919        4.001055
  H            1.595623        4.012829        2.582537
  O            3.448534        2.655531        1.475735
  H            2.613242        3.084339        1.237979
  H            3.230861        1.711903        1.493126
  O            2.325193        7.905472        1.566773
  H            1.993036        7.887038        0.657130
  H            2.731546        7.034329        1.685539
  O            0.630807        7.815480        9.641886
  H            0.135463        8.441259        9.093112
  H            0.496681        6.962254        9.203557
  O            2.940657        7.755284        8.767141
  H            2.675579        7.453630        7.885746
  H            2.967671        6.943268        9.294415
  O            8.027782        9.366871        4.805418
  H            7.168717        9.233863        5.232541
  H            8.667090        9.250411        5.523638
  O            1.179856        1.914871        0.687857
  H            1.514795        1.457323        1.473086
  H            0.328681        2.278159        0.973587
  O            7.819078        3.397202        7.601885
  H            6.995556        3.787682        7.929688
  H            8.247375        3.050564        8.398454
  O            1.100123        7.521269        3.589422
  H            1.138219        8.416615        3.956877
  H            0.469935        7.594947        2.857608
  O            2.553686        9.933768        8.333913
  H            2.255862        9.245649        8.947029
  H            1.964121        9.839247        7.571288
  O            1.124274        7.211193        7.270572
  H            1.609628        7.025824        6.453144
  H            1.275138        6.425172        7.816034
  O            9.135833        4.930741        7.939002
  H            9.970489        5.002608        7.452892
  H            8.956258        5.836472        8.231443
  O            4.633414        0.077643        6.522348
  H            3.900008        0.102099        7.154516
  H            5.420428        0.209489        7.071297
  O            8.758118        6.692933        6.476099
  H            8.850558        7.510919        6.986463
  H            9.317671        6.837229        5.698797
  O            7.643598        4.245266        9.379434
  H            7.728358        4.984419        9.999584
  H            7.564571        3.467523        9.951263
  O            9.760074        4.114402        0.729429
  H            9.257843        3.463541        0.217314
  H            9.997653        4.791574        0.078959
  O            8.766767        1.359165        1.482394
  H            9.119724        0.543613        1.097147
  H            9.413023        1.595077        2.164169
  O            3.036615        2.757710        7.229317
  H            3.753433        2.402552        7.775350
  H            2.982636        2.141678        6.483858
  O            7.990951        8.635602        9.642154
  H            7.601542        9.298229        9.052744
  H            8.379178        7.984749        9.039005
  O            6.326445        1.576803        3.524966
  H            5.976759        0.775244        3.941308
  H            6.704989        2.077826        4.262392
  O            0.561272        2.886920        6.746974
  H            0.006567        3.645999        6.514122
  H            0.820780        2.515042        5.891123
  O            6.462591        2.181788        8.286937
  H            6.226681        1.601284        9.025503
  H            5.681674        2.742957        8.171287
  O            1.769022        9.839112        3.290355
  H            0.856735        9.879411        2.967514
  H            2.281066        9.571480        2.512986
  O            5.329403        5.466532        1.302765
  H            5.939083        5.594414        2.044422
  H            5.911538        5.297084        0.547435
  O            6.440065        3.809695        1.579526
  H            5.489839        3.622125        1.581946
  H            6.686930        3.781107        2.515666
  O            8.037064        3.711141        4.860479
  H            7.148616        3.424871        5.118990
  H            8.508297        2.883265        4.685325
  O            5.411836        8.319822        9.792231
  H            6.347437        8.524566        9.936624
  H            5.354330        7.365352        9.946495
