 DBCSR| CPU Multiplication driver                                           XSMM (U)
 DBCSR| Multrec recursion limit                                              512 (U)
 DBCSR| Multiplication stack size                                           1000 (D)
 DBCSR| Maximum elements for images                                    UNLIMITED (U)
 DBCSR| Multiplicative factor virtual images                                   1 (U)
 DBCSR| Use multiplication densification                                       T (D)
 DBCSR| Multiplication size stacks                                             3 (U)
 DBCSR| Use memory pool for CPU allocation                                     F (U)
 DBCSR| Number of 3D layers                                               SINGLE (U)
 DBCSR| Use MPI memory allocation                                              F (U)
 DBCSR| Use RMA algorithm                                                      F (U)
 DBCSR| Use Communication thread                                               T (U)
 DBCSR| Communication thread load                                             75 (D)
 DBCSR| MPI: My process id                                                     0
 DBCSR| MPI: Number of processes                                              20
 DBCSR| OMP: Current number of threads                                         4
 DBCSR| OMP: Max number of threads                                             4
 DBCSR| Split modifier for TAS multiplication algorithm                  1.0E+00 (U)


  **** **** ******  **  PROGRAM STARTED AT               2025-11-14 18:33:08.286
 ***** ** ***  *** **   PROGRAM STARTED ON        node2.int.red-lion.rl.gcs-devc
 **    ****   ******    PROGRAM STARTED BY                               di97gef
 ***** **    ** ** **   PROGRAM PROCESS ID                                479060
  **** **  *******  **  PROGRAM STARTED IN /home/di97gef/BioPhyCourse/Day2/03_CP
                                           2K_QMMM/data/CP2K-DFT/CP2K-intro

 CP2K| version string:                                       CP2K version 2025.1
 CP2K| source code revision number:                                             
 CP2K| cp2kflags: omp libint fftw3 libxc parallel scalapack xsmm                
 CP2K| is freely available from                            https://www.cp2k.org/
 CP2K| Program compiled at                                   2025-10-05 12:21:40
 CP2K| Program compiled on                              software-rocky.novalocal
 CP2K| Program compiled for                                               x86_64
 CP2K| Data directory path    /custom_software_rocky/spack/opt/spack/linux-icela
 CP2K| Input file name                                            input_cp2k.inp

 GLOBAL| Force Environment number                                              1
 GLOBAL| Basis set file name                                        BASIS_MOLOPT
 GLOBAL| Potential file name                                           POTENTIAL
 GLOBAL| MM Potential file name                                     MM_POTENTIAL
 GLOBAL| Coordinate file name                                        h3po4_e.xyz
 GLOBAL| Method name                                                        CP2K
 GLOBAL| Project name                                                 Pwater-opt
 GLOBAL| Run type                                                        GEO_OPT
 GLOBAL| FFT library                                                       FFTW3
 GLOBAL| Diagonalization library                                       ScaLAPACK
 GLOBAL| DGEMM library                                                      BLAS
 GLOBAL| Orthonormality check for eigenvectors                          DISABLED
 GLOBAL| Matrix multiplication library                                 ScaLAPACK
 GLOBAL| All-to-all communication in single precision                          F
 GLOBAL| FFTs using library dependent lengths                                  F
 GLOBAL| Grid backend                                                       AUTO
 GLOBAL| Global print level                                                  LOW
 GLOBAL| MPI I/O enabled                                                       T
 GLOBAL| Total number of message passing processes                            20
 GLOBAL| Number of threads for this process                                    4
 GLOBAL| This output is from process                                           0
 GLOBAL| OpenMP stack size per thread (OMP_STACKSIZE)                    default
 GLOBAL| CPU model name               Intel(R) Xeon(R) Silver 4316 CPU @ 2.30GHz
 GLOBAL| CPUID                                                              1003

 MEMORY| system memory details [Kb]
 MEMORY|                        rank 0           min           max       average
 MEMORY| MemTotal           1020812132    1020812132    1020812132    1020812132
 MEMORY| MemFree            1010063856    1010063856    1010063856    1010063856
 MEMORY| Buffers                  3956          3956          3956          3956
 MEMORY| Cached                6401908       6401908       6401908       6401908
 MEMORY| Slab                   763800        763800        763800        763800
 MEMORY| SReclaimable           327200        327200        327200        327200
 MEMORY| MemLikelyFree      1016796920    1016796920    1016796920    1016796920


 GENERATE|  Preliminary Number of Bonds generated:                             0
 GENERATE|  Achieved consistency in connectivity generation.

 *******************************************************************************
 *******************************************************************************
 **                                                                           **
 **     #####                         ##              ##                      **
 **    ##   ##            ##          ##              ##                      **
 **   ##     ##                       ##            ######                    **
 **   ##     ##  ##   ##  ##   #####  ##  ##   ####   ##    #####    #####    **
 **   ##     ##  ##   ##  ##  ##      ## ##   ##      ##   ##   ##  ##   ##   **
 **   ##  ## ##  ##   ##  ##  ##      ####     ###    ##   ######   ######    **
 **    ##  ###   ##   ##  ##  ##      ## ##      ##   ##   ##       ##        **
 **     #######   #####   ##   #####  ##  ##  ####    ##    #####   ##        **
 **           ##                                                    ##        **
 **                                                                           **
 **                                                ... make the atoms dance   **
 **                                                                           **
 **            Copyright (C) by CP2K developers group (2000-2025)             **
 **                      J. Chem. Phys. 152, 194103 (2020)                    **
 **                                                                           **
 *******************************************************************************


 TOTAL NUMBERS AND MAXIMUM NUMBERS

  Total number of            - Atomic kinds:                                   3
                             - Atoms:                                          8
                             - Shell sets:                                     8
                             - Shells:                                        13
                             - Primitive Cartesian functions:                 55
                             - Cartesian basis functions:                     23
                             - Spherical basis functions:                     23

  Maximum angular momentum of- Orbital basis functions:                        1
                             - Local part of the GTH pseudopotential:          2
                             - Non-local part of the GTH pseudopotential:      2


 SCF PARAMETERS         Density guess:                                   RESTART
                        --------------------------------------------------------
                        max_scf:                                              50
                        max_scf_history:                                       0
                        max_diis:                                              4
                        --------------------------------------------------------
                        eps_scf:                                        1.00E-04
                        eps_scf_history:                                0.00E+00
                        eps_diis:                                       1.00E-01
                        eps_eigval:                                     1.00E-05
                        --------------------------------------------------------
                        level_shift [a.u.]:                             0.000000
                        --------------------------------------------------------
                        No outer SCF

 BFGS| Use rational function optimization for step estimation:                NO
 BFGS| Use model Hessian for initial guess:                                  YES
 BFGS| Restart Hessian:                                                       NO
 BFGS| Trust radius:                                                       0.472

 *******************************************************************************
 ***                     STARTING GEOMETRY OPTIMIZATION                      ***
 ***                                   BFGS                                  ***
 *******************************************************************************

 Number of electrons:                                                         32
 Number of occupied orbitals:                                                 16
 Number of molecular orbitals:                                                16

 Number of orbital functions:                                                 23
 Number of independent orbital functions:                                     23

 Extrapolation method: initial_guess

 *** WARNING in qs_initial_guess.F:303 :: User requested to restart the   ***
 *** wavefunction from the file named: Pwater-opt-RESTART.wfn. This file  ***
 *** does not exist. Please check the existence of the file or change     ***
 *** properly the value of the keyword WFN_RESTART_FILE_NAME. Calculation ***
 *** continues using ATOMIC GUESS.                                        ***



 SCF WAVEFUNCTION OPTIMIZATION

  ----------------------------------- OT ---------------------------------------
  Minimizer      : DIIS                : direct inversion
                                         in the iterative subspace
                                         using   7 DIIS vectors
                                         safer DIIS on
  Preconditioner : FULL_ALL            : diagonalization, state selective
  Precond_solver : DEFAULT
  stepsize       :    0.15000000                  energy_gap     :    0.08000000
  eps_taylor     :   0.10000E-15                  max_taylor     :             4
  ----------------------------------- OT ---------------------------------------

  Step     Update method      Time    Convergence         Total energy    Change
  ------------------------------------------------------------------------------
     1 OT DIIS     0.15E+00    0.2     0.22502976       -69.1664414952 -6.92E+01
     2 OT DIIS     0.15E+00    0.2     0.17016345       -69.7223696887 -5.56E-01
     3 OT DIIS     0.15E+00    0.3     0.10606159       -70.3184913361 -5.96E-01
     4 OT DIIS     0.15E+00    0.2     0.13720965       -70.4115908518 -9.31E-02
     5 OT DIIS     0.15E+00    0.2     0.05815728       -70.5364545071 -1.25E-01
     6 OT DIIS     0.15E+00    0.2     0.06604472       -70.6112546483 -7.48E-02
     7 OT SD       0.15E+00    0.2     0.07039096       -70.6639960748 -5.27E-02
     8 OT DIIS     0.15E+00    0.2     0.06067935       -70.8371863763 -1.73E-01
     9 OT DIIS     0.15E+00    0.2     0.10029495       -70.6682234001  1.69E-01
    10 OT DIIS     0.15E+00    0.2     0.09230360       -70.6944769724 -2.63E-02
    11 OT DIIS     0.15E+00    0.2     0.09370585       -70.7188982521 -2.44E-02
    12 OT DIIS     0.15E+00    0.2     0.08249972       -70.7313833468 -1.25E-02
    13 OT DIIS     0.15E+00    0.2     0.04627097       -70.8645564868 -1.33E-01
    14 OT DIIS     0.15E+00    0.2     0.04772566       -70.8703049431 -5.75E-03
    15 OT DIIS     0.15E+00    0.2     0.02154552       -70.8970991089 -2.68E-02
    16 OT DIIS     0.15E+00    0.2     0.01406995       -70.9032708166 -6.17E-03
    17 OT DIIS     0.15E+00    0.2     0.00808875       -70.9051078628 -1.84E-03
    18 OT DIIS     0.15E+00    0.2     0.00781715       -70.9053766775 -2.69E-04
    19 OT DIIS     0.15E+00    0.2     0.00296947       -70.9058164978 -4.40E-04
    20 OT DIIS     0.15E+00    0.2     0.00145257       -70.9059258503 -1.09E-04
    21 OT DIIS     0.15E+00    0.2     0.00124502       -70.9059390483 -1.32E-05
    22 OT DIIS     0.15E+00    0.2     0.00047055       -70.9059513900 -1.23E-05
    23 OT DIIS     0.15E+00    0.2     0.00024431       -70.9059547788 -3.39E-06
    24 OT DIIS     0.15E+00    0.2     0.00009068       -70.9059556342 -8.55E-07

  *** SCF run converged in    24 steps ***


  Electronic density on regular grids:        -31.9999999996        0.0000000004
  Core density on regular grids:               32.0000000000       -0.0000000000
  Total charge density on r-space grids:        0.0000000004
  Total charge density g-space grids:           0.0000000004

  Overlap energy of the core charge distribution:               0.00069517210343
  Self energy of the core charge distribution:               -186.73711017945703
  Core Hamiltonian energy:                                     57.96340836823654
  Hartree energy:                                              75.50142760854988
  Exchange-correlation energy:                                -17.62928722530717
  Dispersion energy:                                           -0.00508937831671

  Total energy:                                               -70.90595563419106

 ENERGY| Total FORCE_EVAL ( QS ) energy [hartree]            -70.905955743476596

 OPT| **************************************************************************
 OPT| Step number                                                              0
 OPT| Optimization method                                                   BFGS
 OPT| Total energy [hartree]                                      -70.9059557435
 OPT| Used time [s]                                                        5.275
 OPT| **************************************************************************
 OPT| Estimated peak process memory [MiB]                                    212

 --------------------------
 OPTIMIZATION STEP:      1
 --------------------------

  Step is scaled; Scaling factor =  0.69416

 Number of electrons:                                                         32
 Number of occupied orbitals:                                                 16
 Number of molecular orbitals:                                                16

 Number of orbital functions:                                                 23
 Number of independent orbital functions:                                     23

 Extrapolation method: ASPC


 SCF WAVEFUNCTION OPTIMIZATION

  ----------------------------------- OT ---------------------------------------
  Minimizer      : DIIS                : direct inversion
                                         in the iterative subspace
                                         using   7 DIIS vectors
                                         safer DIIS on
  Preconditioner : FULL_ALL            : diagonalization, state selective
  Precond_solver : DEFAULT
  stepsize       :    0.15000000                  energy_gap     :    0.08000000
  eps_taylor     :   0.10000E-15                  max_taylor     :             4
  ----------------------------------- OT ---------------------------------------

  Step     Update method      Time    Convergence         Total energy    Change
  ------------------------------------------------------------------------------
     1 OT DIIS     0.15E+00    0.1     0.04869808       -71.6388927920 -7.16E+01
     2 OT DIIS     0.15E+00    0.1     0.06389181       -71.6570005558 -1.81E-02
     3 OT DIIS     0.15E+00    0.1     0.02293841       -71.6904610512 -3.35E-02
     4 OT DIIS     0.15E+00    0.2     0.01254220       -71.6949500395 -4.49E-03
     5 OT DIIS     0.15E+00    0.1     0.00107733       -71.6969261222 -1.98E-03
     6 OT DIIS     0.15E+00    0.1     0.00030755       -71.6969650321 -3.89E-05
     7 OT DIIS     0.15E+00    0.1     0.00008600       -71.6969679112 -2.88E-06

  *** SCF run converged in     7 steps ***


  Electronic density on regular grids:        -32.0000000001       -0.0000000001
  Core density on regular grids:               32.0000000000       -0.0000000000
  Total charge density on r-space grids:       -0.0000000001
  Total charge density g-space grids:          -0.0000000001

  Overlap energy of the core charge distribution:               0.00000948947332
  Self energy of the core charge distribution:               -186.73711017945703
  Core Hamiltonian energy:                                     55.77973917078437
  Hartree energy:                                              76.53913636568490
  Exchange-correlation energy:                                -17.27334082278177
  Dispersion energy:                                           -0.00540193491631

  Total energy:                                               -71.69696791121254

 ENERGY| Total FORCE_EVAL ( QS ) energy [hartree]            -71.696968139395750

 OPT| **************************************************************************
 OPT| Step number                                                              1
 OPT| Optimization method                                                   BFGS
 OPT| Total energy [hartree]                                      -71.6969681394
 OPT| Effective energy change [hartree]                            -0.7910123959
 OPT| Predicted energy change [hartree]                            -0.8495863852
 OPT| Scaling factor                                                0.6941597222
 OPT| Step size                                                     0.4724315332
 OPT| Trust radius                                                  0.4724315332
 OPT| Decrease in energy                                                     YES
 OPT| Used time [s]                                                        1.256
 OPT|
 OPT| Maximum step size                                             0.4724315332
 OPT| Convergence limit for maximum step size                       0.0030000000
 OPT| Maximum step size is converged                                          NO
 OPT|
 OPT| RMS step size                                                 0.1345848351
 OPT| Convergence limit for RMS step size                           0.0015000000
 OPT| RMS step size is converged                                              NO
 OPT|
 OPT| Maximum gradient                                              0.6746741108
 OPT| Convergence limit for maximum gradient                        0.0004500000
 OPT| Maximum gradient is converged                                           NO
 OPT|
 OPT| RMS gradient                                                  0.2029709393
 OPT| Convergence limit for RMS gradient                            0.0003000000
 OPT| RMS gradient is converged                                               NO
 OPT| **************************************************************************
 OPT| Estimated peak process memory after this step [MiB]                    213

 --------------------------
 OPTIMIZATION STEP:      2
 --------------------------

 Number of electrons:                                                         32
 Number of occupied orbitals:                                                 16
 Number of molecular orbitals:                                                16

 Number of orbital functions:                                                 23
 Number of independent orbital functions:                                     23

 Extrapolation method: ASPC


 SCF WAVEFUNCTION OPTIMIZATION

  ----------------------------------- OT ---------------------------------------
  Minimizer      : DIIS                : direct inversion
                                         in the iterative subspace
                                         using   7 DIIS vectors
                                         safer DIIS on
  Preconditioner : FULL_ALL            : diagonalization, state selective
  Precond_solver : DEFAULT
  stepsize       :    0.15000000                  energy_gap     :    0.08000000
  eps_taylor     :   0.10000E-15                  max_taylor     :             4
  ----------------------------------- OT ---------------------------------------

  Step     Update method      Time    Convergence         Total energy    Change
  ------------------------------------------------------------------------------
     1 OT DIIS     0.15E+00    0.1     0.05614502       -71.8835561019 -7.19E+01
     2 OT DIIS     0.15E+00    0.1     0.04649347       -71.9445910553 -6.10E-02
     3 OT DIIS     0.15E+00    0.1     0.01795902       -71.9709309128 -2.63E-02
     4 OT DIIS     0.15E+00    0.2     0.00264600       -71.9764799514 -5.55E-03
     5 OT DIIS     0.15E+00    0.1     0.00129900       -71.9767306469 -2.51E-04
     6 OT DIIS     0.15E+00    0.1     0.00066529       -71.9767597907 -2.91E-05
     7 OT DIIS     0.15E+00    0.1     0.00016936       -71.9767675970 -7.81E-06
     8 OT DIIS     0.15E+00    0.1     0.00007120       -71.9767683494 -7.52E-07

  *** SCF run converged in     8 steps ***


  Electronic density on regular grids:        -32.0000000002       -0.0000000002
  Core density on regular grids:               32.0000000000       -0.0000000000
  Total charge density on r-space grids:       -0.0000000002
  Total charge density g-space grids:          -0.0000000002

  Overlap energy of the core charge distribution:               0.00000012281181
  Self energy of the core charge distribution:               -186.73711017945703
  Core Hamiltonian energy:                                     54.33361159148392
  Hartree energy:                                              77.42949383839881
  Exchange-correlation energy:                                -16.99715944856496
  Dispersion energy:                                           -0.00560427410775

  Total energy:                                               -71.97676834943520

 ENERGY| Total FORCE_EVAL ( QS ) energy [hartree]            -71.976768445781588

 OPT| **************************************************************************
 OPT| Step number                                                              2
 OPT| Optimization method                                                   BFGS
 OPT| Total energy [hartree]                                      -71.9767684458
 OPT| Effective energy change [hartree]                            -0.2798003064
 OPT| Predicted energy change [hartree]                            -0.1666828730
 OPT| Scaling factor                                                0.6941597222
 OPT| Step size                                                     0.4206545828
 OPT| Trust radius                                                  0.4724315332
 OPT| Decrease in energy                                                     YES
 OPT| Used time [s]                                                        1.443
 OPT|
 OPT| Maximum step size                                             0.4206545828
 OPT| Convergence limit for maximum step size                       0.0030000000
 OPT| Maximum step size is converged                                          NO
 OPT|
 OPT| RMS step size                                                 0.2020183208
 OPT| Convergence limit for RMS step size                           0.0015000000
 OPT| RMS step size is converged                                              NO
 OPT|
 OPT| Maximum gradient                                              0.2354986977
 OPT| Convergence limit for maximum gradient                        0.0004500000
 OPT| Maximum gradient is converged                                           NO
 OPT|
 OPT| RMS gradient                                                  0.0705916299
 OPT| Convergence limit for RMS gradient                            0.0003000000
 OPT| RMS gradient is converged                                               NO
 OPT| **************************************************************************
 OPT| Estimated peak process memory after this step [MiB]                    213

 --------------------------
 OPTIMIZATION STEP:      3
 --------------------------

  Step is scaled; Scaling factor =  0.58616

 Number of electrons:                                                         32
 Number of occupied orbitals:                                                 16
 Number of molecular orbitals:                                                16

 Number of orbital functions:                                                 23
 Number of independent orbital functions:                                     23

 Extrapolation method: ASPC


 SCF WAVEFUNCTION OPTIMIZATION

  ----------------------------------- OT ---------------------------------------
  Minimizer      : DIIS                : direct inversion
                                         in the iterative subspace
                                         using   7 DIIS vectors
                                         safer DIIS on
  Preconditioner : FULL_ALL            : diagonalization, state selective
  Precond_solver : DEFAULT
  stepsize       :    0.15000000                  energy_gap     :    0.08000000
  eps_taylor     :   0.10000E-15                  max_taylor     :             4
  ----------------------------------- OT ---------------------------------------

  Step     Update method      Time    Convergence         Total energy    Change
  ------------------------------------------------------------------------------
     1 OT DIIS     0.15E+00    0.1     0.07283141       -71.9730827215 -7.20E+01
     2 OT DIIS     0.15E+00    0.1     0.13419769       -71.8656233759  1.07E-01
     3 OT DIIS     0.15E+00    0.1     0.02691022       -72.0399195354 -1.74E-01
     4 OT DIIS     0.15E+00    0.1     0.01370842       -72.0504723627 -1.06E-02
     5 OT DIIS     0.15E+00    0.2     0.01465660       -72.0516277526 -1.16E-03
     6 OT DIIS     0.15E+00    0.1     0.00468962       -72.0536783245 -2.05E-03
     7 OT DIIS     0.15E+00    0.1     0.00326575       -72.0538903997 -2.12E-04
     8 OT DIIS     0.15E+00    0.1     0.00105707       -72.0539879951 -9.76E-05
     9 OT DIIS     0.15E+00    0.1     0.00035052       -72.0540310642 -4.31E-05
    10 OT DIIS     0.15E+00    0.1     0.00014847       -72.0540376778 -6.61E-06
    11 OT DIIS     0.15E+00    0.1     0.00009457       -72.0540391585 -1.48E-06

  *** SCF run converged in    11 steps ***


  Electronic density on regular grids:        -32.0000000002       -0.0000000002
  Core density on regular grids:               32.0000000000       -0.0000000000
  Total charge density on r-space grids:       -0.0000000002
  Total charge density g-space grids:          -0.0000000002

  Overlap energy of the core charge distribution:               0.00000000478669
  Self energy of the core charge distribution:               -186.73711017945703
  Core Hamiltonian energy:                                     53.13938874219451
  Hartree energy:                                              78.24410407809341
  Exchange-correlation energy:                                -16.69469544647336
  Dispersion energy:                                           -0.00572635768228

  Total energy:                                               -72.05403915853805

 ENERGY| Total FORCE_EVAL ( QS ) energy [hartree]            -72.054039831854823

 OPT| **************************************************************************
 OPT| Step number                                                              3
 OPT| Optimization method                                                   BFGS
 OPT| Total energy [hartree]                                      -72.0540398319
 OPT| Effective energy change [hartree]                            -0.0772713861
 OPT| Predicted energy change [hartree]                            -0.1321229580
 OPT| Scaling factor                                                0.5861630672
 OPT| Step size                                                     0.4724315332
 OPT| Trust radius                                                  0.4724315332
 OPT| Decrease in energy                                                     YES
 OPT| Used time [s]                                                        1.874
 OPT|
 OPT| Maximum step size                                             0.4724315332
 OPT| Convergence limit for maximum step size                       0.0030000000
 OPT| Maximum step size is converged                                          NO
 OPT|
 OPT| RMS step size                                                 0.2131719032
 OPT| Convergence limit for RMS step size                           0.0015000000
 OPT| RMS step size is converged                                              NO
 OPT|
 OPT| Maximum gradient                                              0.1258310993
 OPT| Convergence limit for maximum gradient                        0.0004500000
 OPT| Maximum gradient is converged                                           NO
 OPT|
 OPT| RMS gradient                                                  0.0437982959
 OPT| Convergence limit for RMS gradient                            0.0003000000
 OPT| RMS gradient is converged                                               NO
 OPT| **************************************************************************
 OPT| Estimated peak process memory after this step [MiB]                    213

 --------------------------
 OPTIMIZATION STEP:      4
 --------------------------

 Number of electrons:                                                         32
 Number of occupied orbitals:                                                 16
 Number of molecular orbitals:                                                16

 Number of orbital functions:                                                 23
 Number of independent orbital functions:                                     23

 Extrapolation method: ASPC


 SCF WAVEFUNCTION OPTIMIZATION

  ----------------------------------- OT ---------------------------------------
  Minimizer      : DIIS                : direct inversion
                                         in the iterative subspace
                                         using   7 DIIS vectors
                                         safer DIIS on
  Preconditioner : FULL_ALL            : diagonalization, state selective
  Precond_solver : DEFAULT
  stepsize       :    0.15000000                  energy_gap     :    0.08000000
  eps_taylor     :   0.10000E-15                  max_taylor     :             4
  ----------------------------------- OT ---------------------------------------

  Step     Update method      Time    Convergence         Total energy    Change
  ------------------------------------------------------------------------------
     1 OT DIIS     0.15E+00    0.1     0.10551856       -71.8858960959 -7.19E+01
     2 OT DIIS     0.15E+00    0.2     0.14046717       -71.7693556100  1.17E-01
     3 OT DIIS     0.15E+00    0.1     0.02960916       -72.0522228681 -2.83E-01
     4 OT DIIS     0.15E+00    0.1     0.02115525       -72.0674053722 -1.52E-02
     5 OT DIIS     0.15E+00    0.1     0.01813661       -72.0704328176 -3.03E-03
     6 OT DIIS     0.15E+00    0.1     0.00473648       -72.0742191626 -3.79E-03
     7 OT DIIS     0.15E+00    0.1     0.00371864       -72.0747722462 -5.53E-04
     8 OT DIIS     0.15E+00    0.1     0.00175177       -72.0750026723 -2.30E-04
     9 OT DIIS     0.15E+00    0.1     0.00101490       -72.0751268386 -1.24E-04
    10 OT DIIS     0.15E+00    0.1     0.00047046       -72.0752214894 -9.47E-05
    11 OT DIIS     0.15E+00    0.1     0.00034077       -72.0752422354 -2.07E-05
    12 OT DIIS     0.15E+00    0.1     0.00020655       -72.0752442737 -2.04E-06
    13 OT DIIS     0.15E+00    0.1     0.00007534       -72.0752457667 -1.49E-06

  *** SCF run converged in    13 steps ***


  Electronic density on regular grids:        -31.9999999998        0.0000000002
  Core density on regular grids:               32.0000000000       -0.0000000000
  Total charge density on r-space grids:        0.0000000002
  Total charge density g-space grids:           0.0000000002

  Overlap energy of the core charge distribution:               0.00000010212774
  Self energy of the core charge distribution:               -186.73711017945703
  Core Hamiltonian energy:                                     53.13235153362130
  Hartree energy:                                              78.24775940510764
  Exchange-correlation energy:                                -16.71247991205401
  Dispersion energy:                                           -0.00576671607731

  Total energy:                                               -72.07524576673168

 ENERGY| Total FORCE_EVAL ( QS ) energy [hartree]            -72.075246095661598

 OPT| **************************************************************************
 OPT| Step number                                                              4
 OPT| Optimization method                                                   BFGS
 OPT| Total energy [hartree]                                      -72.0752460957
 OPT| Effective energy change [hartree]                            -0.0212062638
 OPT| Predicted energy change [hartree]                            -0.0394657313
 OPT| Scaling factor                                                0.5861630672
 OPT| Step size                                                     0.4113687954
 OPT| Trust radius                                                  0.4724315332
 OPT| Decrease in energy                                                     YES
 OPT| Used time [s]                                                        2.159
 OPT|
 OPT| Maximum step size                                             0.4113687954
 OPT| Convergence limit for maximum step size                       0.0030000000
 OPT| Maximum step size is converged                                          NO
 OPT|
 OPT| RMS step size                                                 0.1428385867
 OPT| Convergence limit for RMS step size                           0.0015000000
 OPT| RMS step size is converged                                              NO
 OPT|
 OPT| Maximum gradient                                              0.0865888513
 OPT| Convergence limit for maximum gradient                        0.0004500000
 OPT| Maximum gradient is converged                                           NO
 OPT|
 OPT| RMS gradient                                                  0.0430282977
 OPT| Convergence limit for RMS gradient                            0.0003000000
 OPT| RMS gradient is converged                                               NO
 OPT| **************************************************************************
 OPT| Estimated peak process memory after this step [MiB]                    213

 --------------------------
 OPTIMIZATION STEP:      5
 --------------------------

 Number of electrons:                                                         32
 Number of occupied orbitals:                                                 16
 Number of molecular orbitals:                                                16

 Number of orbital functions:                                                 23
 Number of independent orbital functions:                                     23

 Extrapolation method: ASPC


 SCF WAVEFUNCTION OPTIMIZATION

  ----------------------------------- OT ---------------------------------------
  Minimizer      : DIIS                : direct inversion
                                         in the iterative subspace
                                         using   7 DIIS vectors
                                         safer DIIS on
  Preconditioner : FULL_ALL            : diagonalization, state selective
  Precond_solver : DEFAULT
  stepsize       :    0.15000000                  energy_gap     :    0.08000000
  eps_taylor     :   0.10000E-15                  max_taylor     :             4
  ----------------------------------- OT ---------------------------------------

  Step     Update method      Time    Convergence         Total energy    Change
  ------------------------------------------------------------------------------
     1 OT DIIS     0.15E+00    0.1     0.06785019       -71.9352879757 -7.19E+01
     2 OT DIIS     0.15E+00    0.1     0.07382821       -72.0513031440 -1.16E-01
     3 OT DIIS     0.15E+00    0.1     0.06501572       -72.0543418884 -3.04E-03
     4 OT DIIS     0.15E+00    0.1     0.01617363       -72.0908132171 -3.65E-02
     5 OT DIIS     0.15E+00    0.1     0.01323020       -72.0927133006 -1.90E-03
     6 OT DIIS     0.15E+00    0.1     0.00321553       -72.0940757775 -1.36E-03
     7 OT DIIS     0.15E+00    0.1     0.00274496       -72.0942315423 -1.56E-04
     8 OT DIIS     0.15E+00    0.1     0.00113181       -72.0943031510 -7.16E-05
     9 OT DIIS     0.15E+00    0.1     0.00022706       -72.0943164551 -1.33E-05
    10 OT DIIS     0.15E+00    0.1     0.00006427       -72.0943184934 -2.04E-06

  *** SCF run converged in    10 steps ***


  Electronic density on regular grids:        -31.9999999995        0.0000000005
  Core density on regular grids:               32.0000000000       -0.0000000000
  Total charge density on r-space grids:        0.0000000005
  Total charge density g-space grids:           0.0000000005

  Overlap energy of the core charge distribution:               0.00000001082552
  Self energy of the core charge distribution:               -186.73711017945703
  Core Hamiltonian energy:                                     53.17138539055429
  Hartree energy:                                              78.20654183448495
  Exchange-correlation energy:                                -16.72938201064242
  Dispersion energy:                                           -0.00575353915656

  Total energy:                                               -72.09431849339126

 ENERGY| Total FORCE_EVAL ( QS ) energy [hartree]            -72.094318670822361

 OPT| **************************************************************************
 OPT| Step number                                                              5
 OPT| Optimization method                                                   BFGS
 OPT| Total energy [hartree]                                      -72.0943186708
 OPT| Effective energy change [hartree]                            -0.0190725752
 OPT| Predicted energy change [hartree]                            -0.0143665660
 OPT| Scaling factor                                                0.5861630672
 OPT| Step size                                                     0.1746593961
 OPT| Trust radius                                                  0.4724315332
 OPT| Decrease in energy                                                     YES
 OPT| Used time [s]                                                        1.714
 OPT|
 OPT| Maximum step size                                             0.1746593961
 OPT| Convergence limit for maximum step size                       0.0030000000
 OPT| Maximum step size is converged                                          NO
 OPT|
 OPT| RMS step size                                                 0.0567639812
 OPT| Convergence limit for RMS step size                           0.0015000000
 OPT| RMS step size is converged                                              NO
 OPT|
 OPT| Maximum gradient                                              0.0615429511
 OPT| Convergence limit for maximum gradient                        0.0004500000
 OPT| Maximum gradient is converged                                           NO
 OPT|
 OPT| RMS gradient                                                  0.0225234158
 OPT| Convergence limit for RMS gradient                            0.0003000000
 OPT| RMS gradient is converged                                               NO
 OPT| **************************************************************************
 OPT| Estimated peak process memory after this step [MiB]                    213

 --------------------------
 OPTIMIZATION STEP:      6
 --------------------------

 Number of electrons:                                                         32
 Number of occupied orbitals:                                                 16
 Number of molecular orbitals:                                                16

 Number of orbital functions:                                                 23
 Number of independent orbital functions:                                     23

 Extrapolation method: ASPC


 SCF WAVEFUNCTION OPTIMIZATION

  ----------------------------------- OT ---------------------------------------
  Minimizer      : DIIS                : direct inversion
                                         in the iterative subspace
                                         using   7 DIIS vectors
                                         safer DIIS on
  Preconditioner : FULL_ALL            : diagonalization, state selective
  Precond_solver : DEFAULT
  stepsize       :    0.15000000                  energy_gap     :    0.08000000
  eps_taylor     :   0.10000E-15                  max_taylor     :             4
  ----------------------------------- OT ---------------------------------------

  Step     Update method      Time    Convergence         Total energy    Change
  ------------------------------------------------------------------------------
     1 OT DIIS     0.15E+00    0.1     0.06323392       -72.0043308447 -7.20E+01
     2 OT DIIS     0.15E+00    0.1     0.09438185       -72.0206581186 -1.63E-02
     3 OT DIIS     0.15E+00    0.1     0.02618744       -72.0947023570 -7.40E-02
     4 OT DIIS     0.15E+00    0.2     0.02269021       -72.1011224122 -6.42E-03
     5 OT DIIS     0.15E+00    0.1     0.00803735       -72.1061963412 -5.07E-03
     6 OT DIIS     0.15E+00    0.1     0.00366816       -72.1068285914 -6.32E-04
     7 OT DIIS     0.15E+00    0.1     0.00180518       -72.1069596731 -1.31E-04
     8 OT DIIS     0.15E+00    0.2     0.00035607       -72.1070083111 -4.86E-05
     9 OT DIIS     0.15E+00    0.1     0.00011729       -72.1070136681 -5.36E-06
    10 OT DIIS     0.15E+00    0.1     0.00005932       -72.1070143717 -7.04E-07

  *** SCF run converged in    10 steps ***


  Electronic density on regular grids:        -32.0000000000        0.0000000000
  Core density on regular grids:               32.0000000000       -0.0000000000
  Total charge density on r-space grids:        0.0000000000
  Total charge density g-space grids:           0.0000000000

  Overlap energy of the core charge distribution:               0.00000000453365
  Self energy of the core charge distribution:               -186.73711017945703
  Core Hamiltonian energy:                                     53.06611799770998
  Hartree energy:                                              78.27152558553135
  Exchange-correlation energy:                                -16.70176439574488
  Dispersion energy:                                           -0.00578338428639

  Total energy:                                               -72.10701437171332

 ENERGY| Total FORCE_EVAL ( QS ) energy [hartree]            -72.107014452192359

 OPT| **************************************************************************
 OPT| Step number                                                              6
 OPT| Optimization method                                                   BFGS
 OPT| Total energy [hartree]                                      -72.1070144522
 OPT| Effective energy change [hartree]                            -0.0126957814
 OPT| Predicted energy change [hartree]                            -0.0087293085
 OPT| Scaling factor                                                0.5861630672
 OPT| Step size                                                     0.1808356062
 OPT| Trust radius                                                  0.4724315332
 OPT| Decrease in energy                                                     YES
 OPT| Used time [s]                                                        1.730
 OPT|
 OPT| Maximum step size                                             0.1808356062
 OPT| Convergence limit for maximum step size                       0.0030000000
 OPT| Maximum step size is converged                                          NO
 OPT|
 OPT| RMS step size                                                 0.0846977681
 OPT| Convergence limit for RMS step size                           0.0015000000
 OPT| RMS step size is converged                                              NO
 OPT|
 OPT| Maximum gradient                                              0.0455625548
 OPT| Convergence limit for maximum gradient                        0.0004500000
 OPT| Maximum gradient is converged                                           NO
 OPT|
 OPT| RMS gradient                                                  0.0209229256
 OPT| Convergence limit for RMS gradient                            0.0003000000
 OPT| RMS gradient is converged                                               NO
 OPT| **************************************************************************
 OPT| Estimated peak process memory after this step [MiB]                    213

 --------------------------
 OPTIMIZATION STEP:      7
 --------------------------

 Number of electrons:                                                         32
 Number of occupied orbitals:                                                 16
 Number of molecular orbitals:                                                16

 Number of orbital functions:                                                 23
 Number of independent orbital functions:                                     23

 Extrapolation method: ASPC


 SCF WAVEFUNCTION OPTIMIZATION

  ----------------------------------- OT ---------------------------------------
  Minimizer      : DIIS                : direct inversion
                                         in the iterative subspace
                                         using   7 DIIS vectors
                                         safer DIIS on
  Preconditioner : FULL_ALL            : diagonalization, state selective
  Precond_solver : DEFAULT
  stepsize       :    0.15000000                  energy_gap     :    0.08000000
  eps_taylor     :   0.10000E-15                  max_taylor     :             4
  ----------------------------------- OT ---------------------------------------

  Step     Update method      Time    Convergence         Total energy    Change
  ------------------------------------------------------------------------------
     1 OT DIIS     0.15E+00    0.1     0.02749021       -72.0950398496 -7.21E+01
     2 OT DIIS     0.15E+00    0.1     0.03773654       -72.1037074055 -8.67E-03
     3 OT DIIS     0.15E+00    0.2     0.01474497       -72.1141800506 -1.05E-02
     4 OT DIIS     0.15E+00    0.2     0.01010204       -72.1161812597 -2.00E-03
     5 OT DIIS     0.15E+00    0.2     0.00438456       -72.1170293441 -8.48E-04
     6 OT DIIS     0.15E+00    0.2     0.00104435       -72.1172064075 -1.77E-04
     7 OT DIIS     0.15E+00    0.2     0.00050209       -72.1172189645 -1.26E-05
     8 OT DIIS     0.15E+00    0.2     0.00006157       -72.1172229104 -3.95E-06

  *** SCF run converged in     8 steps ***


  Electronic density on regular grids:        -32.0000000001       -0.0000000001
  Core density on regular grids:               32.0000000000       -0.0000000000
  Total charge density on r-space grids:       -0.0000000001
  Total charge density g-space grids:          -0.0000000001

  Overlap energy of the core charge distribution:               0.00000001001032
  Self energy of the core charge distribution:               -186.73711017945703
  Core Hamiltonian energy:                                     52.99948760704319
  Hartree energy:                                              78.31519474251769
  Exchange-correlation energy:                                -16.68899801389442
  Dispersion energy:                                           -0.00579707664870

  Total energy:                                               -72.11722291042894

 ENERGY| Total FORCE_EVAL ( QS ) energy [hartree]            -72.117223027251299

 OPT| **************************************************************************
 OPT| Step number                                                              7
 OPT| Optimization method                                                   BFGS
 OPT| Total energy [hartree]                                      -72.1172230273
 OPT| Effective energy change [hartree]                            -0.0102085751
 OPT| Predicted energy change [hartree]                            -0.0090640374
 OPT| Scaling factor                                                0.5861630672
 OPT| Step size                                                     0.2278588979
 OPT| Trust radius                                                  0.4724315332
 OPT| Decrease in energy                                                     YES
 OPT| Used time [s]                                                        1.659
 OPT|
 OPT| Maximum step size                                             0.2278588979
 OPT| Convergence limit for maximum step size                       0.0030000000
 OPT| Maximum step size is converged                                          NO
 OPT|
 OPT| RMS step size                                                 0.1252648807
 OPT| Convergence limit for RMS step size                           0.0015000000
 OPT| RMS step size is converged                                              NO
 OPT|
 OPT| Maximum gradient                                              0.0337609903
 OPT| Convergence limit for maximum gradient                        0.0004500000
 OPT| Maximum gradient is converged                                           NO
 OPT|
 OPT| RMS gradient                                                  0.0172745712
 OPT| Convergence limit for RMS gradient                            0.0003000000
 OPT| RMS gradient is converged                                               NO
 OPT| **************************************************************************
 OPT| Estimated peak process memory after this step [MiB]                    213

 --------------------------
 OPTIMIZATION STEP:      8
 --------------------------

 Number of electrons:                                                         32
 Number of occupied orbitals:                                                 16
 Number of molecular orbitals:                                                16

 Number of orbital functions:                                                 23
 Number of independent orbital functions:                                     23

 Extrapolation method: ASPC


 SCF WAVEFUNCTION OPTIMIZATION

  ----------------------------------- OT ---------------------------------------
  Minimizer      : DIIS                : direct inversion
                                         in the iterative subspace
                                         using   7 DIIS vectors
                                         safer DIIS on
  Preconditioner : FULL_ALL            : diagonalization, state selective
  Precond_solver : DEFAULT
  stepsize       :    0.15000000                  energy_gap     :    0.08000000
  eps_taylor     :   0.10000E-15                  max_taylor     :             4
  ----------------------------------- OT ---------------------------------------

  Step     Update method      Time    Convergence         Total energy    Change
  ------------------------------------------------------------------------------
     1 OT DIIS     0.15E+00    0.1     0.02331795       -72.1041929113 -7.21E+01
     2 OT DIIS     0.15E+00    0.2     0.03086424       -72.1100341881 -5.84E-03
     3 OT DIIS     0.15E+00    0.2     0.01024976       -72.1179864339 -7.95E-03
     4 OT DIIS     0.15E+00    0.2     0.00965640       -72.1186860019 -7.00E-04
     5 OT DIIS     0.15E+00    0.2     0.00087160       -72.1195214926 -8.35E-04
     6 OT DIIS     0.15E+00    0.2     0.00074962       -72.1195300678 -8.58E-06
     7 OT DIIS     0.15E+00    0.2     0.00052568       -72.1195332591 -3.19E-06
     8 OT DIIS     0.15E+00    0.2     0.00006397       -72.1195356658 -2.41E-06

  *** SCF run converged in     8 steps ***


  Electronic density on regular grids:        -31.9999999997        0.0000000003
  Core density on regular grids:               32.0000000000       -0.0000000000
  Total charge density on r-space grids:        0.0000000002
  Total charge density g-space grids:           0.0000000002

  Overlap energy of the core charge distribution:               0.00000000279596
  Self energy of the core charge distribution:               -186.73711017945703
  Core Hamiltonian energy:                                     52.85128625428122
  Hartree energy:                                              78.41193325328598
  Exchange-correlation energy:                                -16.63985315152613
  Dispersion energy:                                           -0.00579184515851

  Total energy:                                               -72.11953566577853

 ENERGY| Total FORCE_EVAL ( QS ) energy [hartree]            -72.119535763686869

 OPT| **************************************************************************
 OPT| Step number                                                              8
 OPT| Optimization method                                                   BFGS
 OPT| Total energy [hartree]                                      -72.1195357637
 OPT| Effective energy change [hartree]                            -0.0023127364
 OPT| Predicted energy change [hartree]                            -0.0054840676
 OPT| Scaling factor                                                0.5861630672
 OPT| Step size                                                     0.2078712202
 OPT| Trust radius                                                  0.4724315332
 OPT| Decrease in energy                                                     YES
 OPT| Used time [s]                                                        1.642
 OPT|
 OPT| Maximum step size                                             0.2078712202
 OPT| Convergence limit for maximum step size                       0.0030000000
 OPT| Maximum step size is converged                                          NO
 OPT|
 OPT| RMS step size                                                 0.0929362098
 OPT| Convergence limit for RMS step size                           0.0015000000
 OPT| RMS step size is converged                                              NO
 OPT|
 OPT| Maximum gradient                                              0.0479789691
 OPT| Convergence limit for maximum gradient                        0.0004500000
 OPT| Maximum gradient is converged                                           NO
 OPT|
 OPT| RMS gradient                                                  0.0193998772
 OPT| Convergence limit for RMS gradient                            0.0003000000
 OPT| RMS gradient is converged                                               NO
 OPT| **************************************************************************
 OPT| Estimated peak process memory after this step [MiB]                    213

 --------------------------
 OPTIMIZATION STEP:      9
 --------------------------

 Number of electrons:                                                         32
 Number of occupied orbitals:                                                 16
 Number of molecular orbitals:                                                16

 Number of orbital functions:                                                 23
 Number of independent orbital functions:                                     23

 Extrapolation method: ASPC


 SCF WAVEFUNCTION OPTIMIZATION

  ----------------------------------- OT ---------------------------------------
  Minimizer      : DIIS                : direct inversion
                                         in the iterative subspace
                                         using   7 DIIS vectors
                                         safer DIIS on
  Preconditioner : FULL_ALL            : diagonalization, state selective
  Precond_solver : DEFAULT
  stepsize       :    0.15000000                  energy_gap     :    0.08000000
  eps_taylor     :   0.10000E-15                  max_taylor     :             4
  ----------------------------------- OT ---------------------------------------

  Step     Update method      Time    Convergence         Total energy    Change
  ------------------------------------------------------------------------------
     1 OT DIIS     0.15E+00    0.1     0.02692586       -72.1050994934 -7.21E+01
     2 OT DIIS     0.15E+00    0.2     0.03096199       -72.1148814323 -9.78E-03
     3 OT DIIS     0.15E+00    0.1     0.01682394       -72.1224779803 -7.60E-03
     4 OT DIIS     0.15E+00    0.1     0.01065563       -72.1244386420 -1.96E-03
     5 OT DIIS     0.15E+00    0.2     0.00296252       -72.1255563226 -1.12E-03
     6 OT DIIS     0.15E+00    0.2     0.00080621       -72.1256683361 -1.12E-04
     7 OT DIIS     0.15E+00    0.2     0.00062019       -72.1256732285 -4.89E-06
     8 OT DIIS     0.15E+00    0.2     0.00007320       -72.1256777891 -4.56E-06

  *** SCF run converged in     8 steps ***


  Electronic density on regular grids:        -31.9999999999        0.0000000001
  Core density on regular grids:               32.0000000000       -0.0000000000
  Total charge density on r-space grids:        0.0000000001
  Total charge density g-space grids:           0.0000000001

  Overlap energy of the core charge distribution:               0.00000000741873
  Self energy of the core charge distribution:               -186.73711017945703
  Core Hamiltonian energy:                                     52.90449810475768
  Hartree energy:                                              78.37612438987752
  Exchange-correlation energy:                                -16.66340461323826
  Dispersion energy:                                           -0.00578549844578

  Total energy:                                               -72.12567778908716

 ENERGY| Total FORCE_EVAL ( QS ) energy [hartree]            -72.125677982979667

 OPT| **************************************************************************
 OPT| Step number                                                              9
 OPT| Optimization method                                                   BFGS
 OPT| Total energy [hartree]                                      -72.1256779830
 OPT| Effective energy change [hartree]                            -0.0061422193
 OPT| Predicted energy change [hartree]                            -0.0046464444
 OPT| Scaling factor                                                0.5861630672
 OPT| Step size                                                     0.0773599675
 OPT| Trust radius                                                  0.4724315332
 OPT| Decrease in energy                                                     YES
 OPT| Used time [s]                                                        1.520
 OPT|
 OPT| Maximum step size                                             0.0773599675
 OPT| Convergence limit for maximum step size                       0.0030000000
 OPT| Maximum step size is converged                                          NO
 OPT|
 OPT| RMS step size                                                 0.0396990203
 OPT| Convergence limit for RMS step size                           0.0015000000
 OPT| RMS step size is converged                                              NO
 OPT|
 OPT| Maximum gradient                                              0.0267165969
 OPT| Convergence limit for maximum gradient                        0.0004500000
 OPT| Maximum gradient is converged                                           NO
 OPT|
 OPT| RMS gradient                                                  0.0133896667
 OPT| Convergence limit for RMS gradient                            0.0003000000
 OPT| RMS gradient is converged                                               NO
 OPT| **************************************************************************
 OPT| Estimated peak process memory after this step [MiB]                    213

 --------------------------
 OPTIMIZATION STEP:     10
 --------------------------

 Number of electrons:                                                         32
 Number of occupied orbitals:                                                 16
 Number of molecular orbitals:                                                16

 Number of orbital functions:                                                 23
 Number of independent orbital functions:                                     23

 Extrapolation method: ASPC


 SCF WAVEFUNCTION OPTIMIZATION

  ----------------------------------- OT ---------------------------------------
  Minimizer      : DIIS                : direct inversion
                                         in the iterative subspace
                                         using   7 DIIS vectors
                                         safer DIIS on
  Preconditioner : FULL_ALL            : diagonalization, state selective
  Precond_solver : DEFAULT
  stepsize       :    0.15000000                  energy_gap     :    0.08000000
  eps_taylor     :   0.10000E-15                  max_taylor     :             4
  ----------------------------------- OT ---------------------------------------

  Step     Update method      Time    Convergence         Total energy    Change
  ------------------------------------------------------------------------------
     1 OT DIIS     0.15E+00    0.1     0.03037709       -72.0979337477 -7.21E+01
     2 OT DIIS     0.15E+00    0.2     0.02943550       -72.1199310101 -2.20E-02
     3 OT DIIS     0.15E+00    0.2     0.02087755       -72.1254292513 -5.50E-03
     4 OT DIIS     0.15E+00    0.1     0.00491507       -72.1298788167 -4.45E-03
     5 OT DIIS     0.15E+00    0.1     0.00219718       -72.1301778738 -2.99E-04
     6 OT DIIS     0.15E+00    0.1     0.00081084       -72.1302188774 -4.10E-05
     7 OT DIIS     0.15E+00    0.1     0.00019036       -72.1302275725 -8.70E-06
     8 OT DIIS     0.15E+00    0.1     0.00016551       -72.1302277397 -1.67E-07
     9 OT DIIS     0.15E+00    0.1     0.00001117       -72.1302280255 -2.86E-07

  *** SCF run converged in     9 steps ***


  Electronic density on regular grids:        -32.0000000003       -0.0000000003
  Core density on regular grids:               32.0000000000       -0.0000000000
  Total charge density on r-space grids:       -0.0000000004
  Total charge density g-space grids:          -0.0000000004

  Overlap energy of the core charge distribution:               0.00000000931122
  Self energy of the core charge distribution:               -186.73711017945703
  Core Hamiltonian energy:                                     52.91048820450694
  Hartree energy:                                              78.36954882765318
  Exchange-correlation energy:                                -16.66736408520538
  Dispersion energy:                                           -0.00579080233181

  Total energy:                                               -72.13022802552290

 ENERGY| Total FORCE_EVAL ( QS ) energy [hartree]            -72.130228030374781

 OPT| **************************************************************************
 OPT| Step number                                                             10
 OPT| Optimization method                                                   BFGS
 OPT| Total energy [hartree]                                      -72.1302280304
 OPT| Effective energy change [hartree]                            -0.0045500474
 OPT| Predicted energy change [hartree]                            -0.0051037960
 OPT| Scaling factor                                                0.5861630672
 OPT| Step size                                                     0.2348359894
 OPT| Trust radius                                                  0.4724315332
 OPT| Decrease in energy                                                     YES
 OPT| Used time [s]                                                        1.587
 OPT|
 OPT| Maximum step size                                             0.2348359894
 OPT| Convergence limit for maximum step size                       0.0030000000
 OPT| Maximum step size is converged                                          NO
 OPT|
 OPT| RMS step size                                                 0.0829043914
 OPT| Convergence limit for RMS step size                           0.0015000000
 OPT| RMS step size is converged                                              NO
 OPT|
 OPT| Maximum gradient                                              0.0306283926
 OPT| Convergence limit for maximum gradient                        0.0004500000
 OPT| Maximum gradient is converged                                           NO
 OPT|
 OPT| RMS gradient                                                  0.0146784708
 OPT| Convergence limit for RMS gradient                            0.0003000000
 OPT| RMS gradient is converged                                               NO
 OPT| **************************************************************************
 OPT| Estimated peak process memory after this step [MiB]                    216

 --------------------------
 OPTIMIZATION STEP:     11
 --------------------------

 Number of electrons:                                                         32
 Number of occupied orbitals:                                                 16
 Number of molecular orbitals:                                                16

 Number of orbital functions:                                                 23
 Number of independent orbital functions:                                     23

 Extrapolation method: ASPC


 SCF WAVEFUNCTION OPTIMIZATION

  ----------------------------------- OT ---------------------------------------
  Minimizer      : DIIS                : direct inversion
                                         in the iterative subspace
                                         using   7 DIIS vectors
                                         safer DIIS on
  Preconditioner : FULL_ALL            : diagonalization, state selective
  Precond_solver : DEFAULT
  stepsize       :    0.15000000                  energy_gap     :    0.08000000
  eps_taylor     :   0.10000E-15                  max_taylor     :             4
  ----------------------------------- OT ---------------------------------------

  Step     Update method      Time    Convergence         Total energy    Change
  ------------------------------------------------------------------------------
     1 OT DIIS     0.15E+00    0.2     0.03107613       -72.1081155793 -7.21E+01
     2 OT DIIS     0.15E+00    0.2     0.03401862       -72.1216030606 -1.35E-02
     3 OT DIIS     0.15E+00    0.2     0.01618671       -72.1317583099 -1.02E-02
     4 OT DIIS     0.15E+00    0.2     0.01226831       -72.1335455566 -1.79E-03
     5 OT DIIS     0.15E+00    0.2     0.00332775       -72.1348831654 -1.34E-03
     6 OT DIIS     0.15E+00    0.2     0.00110339       -72.1350129782 -1.30E-04
     7 OT DIIS     0.15E+00    0.2     0.00064480       -72.1350245392 -1.16E-05
     8 OT DIIS     0.15E+00    0.2     0.00007851       -72.1350299557 -5.42E-06

  *** SCF run converged in     8 steps ***


  Electronic density on regular grids:        -32.0000000006       -0.0000000006
  Core density on regular grids:               32.0000000000       -0.0000000000
  Total charge density on r-space grids:       -0.0000000006
  Total charge density g-space grids:          -0.0000000006

  Overlap energy of the core charge distribution:               0.00000000563495
  Self energy of the core charge distribution:               -186.73711017945703
  Core Hamiltonian energy:                                     52.93278188788344
  Hartree energy:                                              78.34955668035521
  Exchange-correlation energy:                                -16.67444553077955
  Dispersion energy:                                           -0.00581281930678

  Total energy:                                               -72.13502995566976

 ENERGY| Total FORCE_EVAL ( QS ) energy [hartree]            -72.135030181363220

 OPT| **************************************************************************
 OPT| Step number                                                             11
 OPT| Optimization method                                                   BFGS
 OPT| Total energy [hartree]                                      -72.1350301814
 OPT| Effective energy change [hartree]                            -0.0048021510
 OPT| Predicted energy change [hartree]                            -0.0036683804
 OPT| Scaling factor                                                0.5861630672
 OPT| Step size                                                     0.1484311294
 OPT| Trust radius                                                  0.4724315332
 OPT| Decrease in energy                                                     YES
 OPT| Used time [s]                                                        1.817
 OPT|
 OPT| Maximum step size                                             0.1484311294
 OPT| Convergence limit for maximum step size                       0.0030000000
 OPT| Maximum step size is converged                                          NO
 OPT|
 OPT| RMS step size                                                 0.0704025439
 OPT| Convergence limit for RMS step size                           0.0015000000
 OPT| RMS step size is converged                                              NO
 OPT|
 OPT| Maximum gradient                                              0.0276629373
 OPT| Convergence limit for maximum gradient                        0.0004500000
 OPT| Maximum gradient is converged                                           NO
 OPT|
 OPT| RMS gradient                                                  0.0132456607
 OPT| Convergence limit for RMS gradient                            0.0003000000
 OPT| RMS gradient is converged                                               NO
 OPT| **************************************************************************
 OPT| Estimated peak process memory after this step [MiB]                    216

 --------------------------
 OPTIMIZATION STEP:     12
 --------------------------

 Number of electrons:                                                         32
 Number of occupied orbitals:                                                 16
 Number of molecular orbitals:                                                16

 Number of orbital functions:                                                 23
 Number of independent orbital functions:                                     23

 Extrapolation method: ASPC


 SCF WAVEFUNCTION OPTIMIZATION

  ----------------------------------- OT ---------------------------------------
  Minimizer      : DIIS                : direct inversion
                                         in the iterative subspace
                                         using   7 DIIS vectors
                                         safer DIIS on
  Preconditioner : FULL_ALL            : diagonalization, state selective
  Precond_solver : DEFAULT
  stepsize       :    0.15000000                  energy_gap     :    0.08000000
  eps_taylor     :   0.10000E-15                  max_taylor     :             4
  ----------------------------------- OT ---------------------------------------

  Step     Update method      Time    Convergence         Total energy    Change
  ------------------------------------------------------------------------------
     1 OT DIIS     0.15E+00    0.1     0.00931493       -72.1340848645 -7.21E+01
     2 OT DIIS     0.15E+00    0.1     0.00948796       -72.1353212964 -1.24E-03
     3 OT DIIS     0.15E+00    0.2     0.00283980       -72.1363156685 -9.94E-04
     4 OT DIIS     0.15E+00    0.1     0.00211121       -72.1364382957 -1.23E-04
     5 OT DIIS     0.15E+00    0.2     0.00043430       -72.1364791341 -4.08E-05
     6 OT DIIS     0.15E+00    0.2     0.00026575       -72.1364807809 -1.65E-06
     7 OT DIIS     0.15E+00    0.2     0.00006389       -72.1364815752 -7.94E-07

  *** SCF run converged in     7 steps ***


  Electronic density on regular grids:        -32.0000000000       -0.0000000000
  Core density on regular grids:               32.0000000000       -0.0000000000
  Total charge density on r-space grids:       -0.0000000000
  Total charge density g-space grids:          -0.0000000000

  Overlap energy of the core charge distribution:               0.00000002300978
  Self energy of the core charge distribution:               -186.73711017945703
  Core Hamiltonian energy:                                     53.08504236585233
  Hartree energy:                                              78.24912839100098
  Exchange-correlation energy:                                -16.72767452723148
  Dispersion energy:                                           -0.00586764838915

  Total energy:                                               -72.13648157521456

 ENERGY| Total FORCE_EVAL ( QS ) energy [hartree]            -72.136481634629845

 OPT| **************************************************************************
 OPT| Step number                                                             12
 OPT| Optimization method                                                   BFGS
 OPT| Total energy [hartree]                                      -72.1364816346
 OPT| Effective energy change [hartree]                            -0.0014514533
 OPT| Predicted energy change [hartree]                            -0.0052758348
 OPT| Scaling factor                                                0.5861630672
 OPT| Step size                                                     0.2053106109
 OPT| Trust radius                                                  0.4724315332
 OPT| Decrease in energy                                                     YES
 OPT| Used time [s]                                                        1.367
 OPT|
 OPT| Maximum step size                                             0.2053106109
 OPT| Convergence limit for maximum step size                       0.0030000000
 OPT| Maximum step size is converged                                          NO
 OPT|
 OPT| RMS step size                                                 0.0849788569
 OPT| Convergence limit for RMS step size                           0.0015000000
 OPT| RMS step size is converged                                              NO
 OPT|
 OPT| Maximum gradient                                              0.0399559243
 OPT| Convergence limit for maximum gradient                        0.0004500000
 OPT| Maximum gradient is converged                                           NO
 OPT|
 OPT| RMS gradient                                                  0.0167294243
 OPT| Convergence limit for RMS gradient                            0.0003000000
 OPT| RMS gradient is converged                                               NO
 OPT| **************************************************************************
 OPT| Estimated peak process memory after this step [MiB]                    216

 --------------------------
 OPTIMIZATION STEP:     13
 --------------------------

 Number of electrons:                                                         32
 Number of occupied orbitals:                                                 16
 Number of molecular orbitals:                                                16

 Number of orbital functions:                                                 23
 Number of independent orbital functions:                                     23

 Extrapolation method: ASPC


 SCF WAVEFUNCTION OPTIMIZATION

  ----------------------------------- OT ---------------------------------------
  Minimizer      : DIIS                : direct inversion
                                         in the iterative subspace
                                         using   7 DIIS vectors
                                         safer DIIS on
  Preconditioner : FULL_ALL            : diagonalization, state selective
  Precond_solver : DEFAULT
  stepsize       :    0.15000000                  energy_gap     :    0.08000000
  eps_taylor     :   0.10000E-15                  max_taylor     :             4
  ----------------------------------- OT ---------------------------------------

  Step     Update method      Time    Convergence         Total energy    Change
  ------------------------------------------------------------------------------
     1 OT DIIS     0.15E+00    0.1     0.02162068       -72.1246877976 -7.21E+01
     2 OT DIIS     0.15E+00    0.2     0.01800279       -72.1360565228 -1.14E-02
     3 OT DIIS     0.15E+00    0.2     0.01307361       -72.1385915390 -2.54E-03
     4 OT DIIS     0.15E+00    0.2     0.00668151       -72.1401312197 -1.54E-03
     5 OT DIIS     0.15E+00    0.2     0.00173699       -72.1405764553 -4.45E-04
     6 OT DIIS     0.15E+00    0.2     0.00023989       -72.1406132257 -3.68E-05
     7 OT DIIS     0.15E+00    0.2     0.00016482       -72.1406144959 -1.27E-06
     8 OT DIIS     0.15E+00    0.2     0.00007016       -72.1406147580 -2.62E-07

  *** SCF run converged in     8 steps ***


  Electronic density on regular grids:        -31.9999999998        0.0000000002
  Core density on regular grids:               32.0000000000       -0.0000000000
  Total charge density on r-space grids:        0.0000000001
  Total charge density g-space grids:           0.0000000001

  Overlap energy of the core charge distribution:               0.00000000621157
  Self energy of the core charge distribution:               -186.73711017945703
  Core Hamiltonian energy:                                     53.00870462499136
  Hartree energy:                                              78.29487004655289
  Exchange-correlation energy:                                -16.70118791683213
  Dispersion energy:                                           -0.00589133947901

  Total energy:                                               -72.14061475801236

 ENERGY| Total FORCE_EVAL ( QS ) energy [hartree]            -72.140614817908272

 OPT| **************************************************************************
 OPT| Step number                                                             13
 OPT| Optimization method                                                   BFGS
 OPT| Total energy [hartree]                                      -72.1406148179
 OPT| Effective energy change [hartree]                            -0.0041331833
 OPT| Predicted energy change [hartree]                            -0.0041084466
 OPT| Scaling factor                                                0.5861630672
 OPT| Step size                                                     0.1605870992
 OPT| Trust radius                                                  0.4724315332
 OPT| Decrease in energy                                                     YES
 OPT| Used time [s]                                                        1.540
 OPT|
 OPT| Maximum step size                                             0.1605870992
 OPT| Convergence limit for maximum step size                       0.0030000000
 OPT| Maximum step size is converged                                          NO
 OPT|
 OPT| RMS step size                                                 0.0655391771
 OPT| Convergence limit for RMS step size                           0.0015000000
 OPT| RMS step size is converged                                              NO
 OPT|
 OPT| Maximum gradient                                              0.0190688389
 OPT| Convergence limit for maximum gradient                        0.0004500000
 OPT| Maximum gradient is converged                                           NO
 OPT|
 OPT| RMS gradient                                                  0.0095616048
 OPT| Convergence limit for RMS gradient                            0.0003000000
 OPT| RMS gradient is converged                                               NO
 OPT| **************************************************************************
 OPT| Estimated peak process memory after this step [MiB]                    216

 --------------------------
 OPTIMIZATION STEP:     14
 --------------------------

 Number of electrons:                                                         32
 Number of occupied orbitals:                                                 16
 Number of molecular orbitals:                                                16

 Number of orbital functions:                                                 23
 Number of independent orbital functions:                                     23

 Extrapolation method: ASPC


 SCF WAVEFUNCTION OPTIMIZATION

  ----------------------------------- OT ---------------------------------------
  Minimizer      : DIIS                : direct inversion
                                         in the iterative subspace
                                         using   7 DIIS vectors
                                         safer DIIS on
  Preconditioner : FULL_ALL            : diagonalization, state selective
  Precond_solver : DEFAULT
  stepsize       :    0.15000000                  energy_gap     :    0.08000000
  eps_taylor     :   0.10000E-15                  max_taylor     :             4
  ----------------------------------- OT ---------------------------------------

  Step     Update method      Time    Convergence         Total energy    Change
  ------------------------------------------------------------------------------
     1 OT DIIS     0.15E+00    0.1     0.02854230       -72.1162553929 -7.21E+01
     2 OT DIIS     0.15E+00    0.1     0.02503858       -72.1320978922 -1.58E-02
     3 OT DIIS     0.15E+00    0.2     0.01446454       -72.1380729012 -5.98E-03
     4 OT DIIS     0.15E+00    0.2     0.00915750       -72.1399580496 -1.89E-03
     5 OT DIIS     0.15E+00    0.1     0.00311584       -72.1407575966 -8.00E-04
     6 OT DIIS     0.15E+00    0.1     0.00041060       -72.1408754428 -1.18E-04
     7 OT DIIS     0.15E+00    0.1     0.00025745       -72.1408794991 -4.06E-06
     8 OT DIIS     0.15E+00    0.2     0.00008910       -72.1408802849 -7.86E-07

  *** SCF run converged in     8 steps ***


  Electronic density on regular grids:        -31.9999999998        0.0000000002
  Core density on regular grids:               32.0000000000       -0.0000000000
  Total charge density on r-space grids:        0.0000000002
  Total charge density g-space grids:           0.0000000002

  Overlap energy of the core charge distribution:               0.00000000972859
  Self energy of the core charge distribution:               -186.73711017945703
  Core Hamiltonian energy:                                     53.02182131647800
  Hartree energy:                                              78.28749074760634
  Exchange-correlation energy:                                -16.70718234687836
  Dispersion energy:                                           -0.00589983241621

  Total energy:                                               -72.14088028493869

 ENERGY| Total FORCE_EVAL ( QS ) energy [hartree]            -72.140880421322251

 OPT| **************************************************************************
 OPT| Step number                                                             14
 OPT| Optimization method                                                   BFGS
 OPT| Total energy [hartree]                                      -72.1408804213
 OPT| Effective energy change [hartree]                            -0.0002656034
 OPT| Predicted energy change [hartree]                            -0.0012928941
 OPT| Scaling factor                                                0.5861630672
 OPT| Step size                                                     0.0675331553
 OPT| Trust radius                                                  0.4724315332
 OPT| Decrease in energy                                                     YES
 OPT| Used time [s]                                                        1.448
 OPT|
 OPT| Maximum step size                                             0.0675331553
 OPT| Convergence limit for maximum step size                       0.0030000000
 OPT| Maximum step size is converged                                          NO
 OPT|
 OPT| RMS step size                                                 0.0263868757
 OPT| Convergence limit for RMS step size                           0.0015000000
 OPT| RMS step size is converged                                              NO
 OPT|
 OPT| Maximum gradient                                              0.0183693281
 OPT| Convergence limit for maximum gradient                        0.0004500000
 OPT| Maximum gradient is converged                                           NO
 OPT|
 OPT| RMS gradient                                                  0.0094656892
 OPT| Convergence limit for RMS gradient                            0.0003000000
 OPT| RMS gradient is converged                                               NO
 OPT| **************************************************************************
 OPT| Estimated peak process memory after this step [MiB]                    216

 --------------------------
 OPTIMIZATION STEP:     15
 --------------------------

 Number of electrons:                                                         32
 Number of occupied orbitals:                                                 16
 Number of molecular orbitals:                                                16

 Number of orbital functions:                                                 23
 Number of independent orbital functions:                                     23

 Extrapolation method: ASPC


 SCF WAVEFUNCTION OPTIMIZATION

  ----------------------------------- OT ---------------------------------------
  Minimizer      : DIIS                : direct inversion
                                         in the iterative subspace
                                         using   7 DIIS vectors
                                         safer DIIS on
  Preconditioner : FULL_ALL            : diagonalization, state selective
  Precond_solver : DEFAULT
  stepsize       :    0.15000000                  energy_gap     :    0.08000000
  eps_taylor     :   0.10000E-15                  max_taylor     :             4
  ----------------------------------- OT ---------------------------------------

  Step     Update method      Time    Convergence         Total energy    Change
  ------------------------------------------------------------------------------
     1 OT DIIS     0.15E+00    0.1     0.01458064       -72.1346119221 -7.21E+01
     2 OT DIIS     0.15E+00    0.1     0.01052178       -72.1401630316 -5.55E-03
     3 OT DIIS     0.15E+00    0.1     0.00676614       -72.1413204243 -1.16E-03
     4 OT DIIS     0.15E+00    0.1     0.00240275       -72.1419572769 -6.37E-04
     5 OT DIIS     0.15E+00    0.2     0.00123216       -72.1420201226 -6.28E-05
     6 OT DIIS     0.15E+00    0.2     0.00029948       -72.1420333032 -1.32E-05
     7 OT DIIS     0.15E+00    0.2     0.00020801       -72.1420339460 -6.43E-07
     8 OT DIIS     0.15E+00    0.2     0.00001380       -72.1420344314 -4.85E-07

  *** SCF run converged in     8 steps ***


  Electronic density on regular grids:        -31.9999999995        0.0000000005
  Core density on regular grids:               32.0000000000       -0.0000000000
  Total charge density on r-space grids:        0.0000000005
  Total charge density g-space grids:           0.0000000005

  Overlap energy of the core charge distribution:               0.00000001039268
  Self energy of the core charge distribution:               -186.73711017945703
  Core Hamiltonian energy:                                     53.03435481434184
  Hartree energy:                                              78.27994630170264
  Exchange-correlation energy:                                -16.71331922021329
  Dispersion energy:                                           -0.00590615812258

  Total energy:                                               -72.14203443135574

 ENERGY| Total FORCE_EVAL ( QS ) energy [hartree]            -72.142034437508940

 OPT| **************************************************************************
 OPT| Step number                                                             15
 OPT| Optimization method                                                   BFGS
 OPT| Total energy [hartree]                                      -72.1420344375
 OPT| Effective energy change [hartree]                            -0.0011540162
 OPT| Predicted energy change [hartree]                            -0.0010727440
 OPT| Scaling factor                                                0.5861630672
 OPT| Step size                                                     0.0393273226
 OPT| Trust radius                                                  0.4724315332
 OPT| Decrease in energy                                                     YES
 OPT| Used time [s]                                                        1.501
 OPT|
 OPT| Maximum step size                                             0.0393273226
 OPT| Convergence limit for maximum step size                       0.0030000000
 OPT| Maximum step size is converged                                          NO
 OPT|
 OPT| RMS step size                                                 0.0166773438
 OPT| Convergence limit for RMS step size                           0.0015000000
 OPT| RMS step size is converged                                              NO
 OPT|
 OPT| Maximum gradient                                              0.0112594809
 OPT| Convergence limit for maximum gradient                        0.0004500000
 OPT| Maximum gradient is converged                                           NO
 OPT|
 OPT| RMS gradient                                                  0.0045559303
 OPT| Convergence limit for RMS gradient                            0.0003000000
 OPT| RMS gradient is converged                                               NO
 OPT| **************************************************************************
 OPT| Estimated peak process memory after this step [MiB]                    216

 --------------------------
 OPTIMIZATION STEP:     16
 --------------------------

 Number of electrons:                                                         32
 Number of occupied orbitals:                                                 16
 Number of molecular orbitals:                                                16

 Number of orbital functions:                                                 23
 Number of independent orbital functions:                                     23

 Extrapolation method: ASPC


 SCF WAVEFUNCTION OPTIMIZATION

  ----------------------------------- OT ---------------------------------------
  Minimizer      : DIIS                : direct inversion
                                         in the iterative subspace
                                         using   7 DIIS vectors
                                         safer DIIS on
  Preconditioner : FULL_ALL            : diagonalization, state selective
  Precond_solver : DEFAULT
  stepsize       :    0.15000000                  energy_gap     :    0.08000000
  eps_taylor     :   0.10000E-15                  max_taylor     :             4
  ----------------------------------- OT ---------------------------------------

  Step     Update method      Time    Convergence         Total energy    Change
  ------------------------------------------------------------------------------
     1 OT DIIS     0.15E+00    0.1     0.01010848       -72.1391455353 -7.21E+01
     2 OT DIIS     0.15E+00    0.1     0.00932450       -72.1412192185 -2.07E-03
     3 OT DIIS     0.15E+00    0.1     0.00445650       -72.1421000078 -8.81E-04
     4 OT DIIS     0.15E+00    0.2     0.00356817       -72.1422851226 -1.85E-04
     5 OT DIIS     0.15E+00    0.2     0.00030122       -72.1424030851 -1.18E-04
     6 OT DIIS     0.15E+00    0.2     0.00010400       -72.1424048385 -1.75E-06
     7 OT DIIS     0.15E+00    0.2     0.00003193       -72.1424051125 -2.74E-07

  *** SCF run converged in     7 steps ***


  Electronic density on regular grids:        -31.9999999997        0.0000000003
  Core density on regular grids:               32.0000000000       -0.0000000000
  Total charge density on r-space grids:        0.0000000002
  Total charge density g-space grids:           0.0000000002

  Overlap energy of the core charge distribution:               0.00000000944338
  Self energy of the core charge distribution:               -186.73711017945703
  Core Hamiltonian energy:                                     53.03761095306147
  Hartree energy:                                              78.27722390423530
  Exchange-correlation energy:                                -16.71420559783974
  Dispersion energy:                                           -0.00592420198624

  Total energy:                                               -72.14240511254286

 ENERGY| Total FORCE_EVAL ( QS ) energy [hartree]            -72.142405121758983

 OPT| **************************************************************************
 OPT| Step number                                                             16
 OPT| Optimization method                                                   BFGS
 OPT| Total energy [hartree]                                      -72.1424051218
 OPT| Effective energy change [hartree]                            -0.0003706843
 OPT| Predicted energy change [hartree]                            -0.0003848636
 OPT| Scaling factor                                                0.5861630672
 OPT| Step size                                                     0.0680262473
 OPT| Trust radius                                                  0.4724315332
 OPT| Decrease in energy                                                     YES
 OPT| Used time [s]                                                        1.292
 OPT|
 OPT| Maximum step size                                             0.0680262473
 OPT| Convergence limit for maximum step size                       0.0030000000
 OPT| Maximum step size is converged                                          NO
 OPT|
 OPT| RMS step size                                                 0.0277376297
 OPT| Convergence limit for RMS step size                           0.0015000000
 OPT| RMS step size is converged                                              NO
 OPT|
 OPT| Maximum gradient                                              0.0113402864
 OPT| Convergence limit for maximum gradient                        0.0004500000
 OPT| Maximum gradient is converged                                           NO
 OPT|
 OPT| RMS gradient                                                  0.0047560219
 OPT| Convergence limit for RMS gradient                            0.0003000000
 OPT| RMS gradient is converged                                               NO
 OPT| **************************************************************************
 OPT| Estimated peak process memory after this step [MiB]                    216

 --------------------------
 OPTIMIZATION STEP:     17
 --------------------------

 Number of electrons:                                                         32
 Number of occupied orbitals:                                                 16
 Number of molecular orbitals:                                                16

 Number of orbital functions:                                                 23
 Number of independent orbital functions:                                     23

 Extrapolation method: ASPC


 SCF WAVEFUNCTION OPTIMIZATION

  ----------------------------------- OT ---------------------------------------
  Minimizer      : DIIS                : direct inversion
                                         in the iterative subspace
                                         using   7 DIIS vectors
                                         safer DIIS on
  Preconditioner : FULL_ALL            : diagonalization, state selective
  Precond_solver : DEFAULT
  stepsize       :    0.15000000                  energy_gap     :    0.08000000
  eps_taylor     :   0.10000E-15                  max_taylor     :             4
  ----------------------------------- OT ---------------------------------------

  Step     Update method      Time    Convergence         Total energy    Change
  ------------------------------------------------------------------------------
     1 OT DIIS     0.15E+00    0.1     0.00899819       -72.1399170375 -7.21E+01
     2 OT DIIS     0.15E+00    0.1     0.00560827       -72.1424251622 -2.51E-03
     3 OT DIIS     0.15E+00    0.1     0.00634113       -72.1425530215 -1.28E-04
     4 OT DIIS     0.15E+00    0.1     0.00203131       -72.1429409979 -3.88E-04
     5 OT DIIS     0.15E+00    0.1     0.00031427       -72.1429807818 -3.98E-05
     6 OT DIIS     0.15E+00    0.2     0.00010277       -72.1429824156 -1.63E-06
     7 OT DIIS     0.15E+00    0.2     0.00001054       -72.1429826795 -2.64E-07

  *** SCF run converged in     7 steps ***


  Electronic density on regular grids:        -31.9999999999        0.0000000001
  Core density on regular grids:               32.0000000000       -0.0000000000
  Total charge density on r-space grids:        0.0000000001
  Total charge density g-space grids:           0.0000000001

  Overlap energy of the core charge distribution:               0.00000001071711
  Self energy of the core charge distribution:               -186.73711017945703
  Core Hamiltonian energy:                                     53.04029582687526
  Hartree energy:                                              78.27635681394861
  Exchange-correlation energy:                                -16.71659044492812
  Dispersion energy:                                           -0.00593470669359

  Total energy:                                               -72.14298267953777

 ENERGY| Total FORCE_EVAL ( QS ) energy [hartree]            -72.142982682360213

 OPT| **************************************************************************
 OPT| Step number                                                             17
 OPT| Optimization method                                                   BFGS
 OPT| Total energy [hartree]                                      -72.1429826824
 OPT| Effective energy change [hartree]                            -0.0005775606
 OPT| Predicted energy change [hartree]                            -0.0003845232
 OPT| Scaling factor                                                0.5861630672
 OPT| Step size                                                     0.0460592556
 OPT| Trust radius                                                  0.4724315332
 OPT| Decrease in energy                                                     YES
 OPT| Used time [s]                                                        1.290
 OPT|
 OPT| Maximum step size                                             0.0460592556
 OPT| Convergence limit for maximum step size                       0.0030000000
 OPT| Maximum step size is converged                                          NO
 OPT|
 OPT| RMS step size                                                 0.0206506688
 OPT| Convergence limit for RMS step size                           0.0015000000
 OPT| RMS step size is converged                                              NO
 OPT|
 OPT| Maximum gradient                                              0.0130916702
 OPT| Convergence limit for maximum gradient                        0.0004500000
 OPT| Maximum gradient is converged                                           NO
 OPT|
 OPT| RMS gradient                                                  0.0051658302
 OPT| Convergence limit for RMS gradient                            0.0003000000
 OPT| RMS gradient is converged                                               NO
 OPT| **************************************************************************
 OPT| Estimated peak process memory after this step [MiB]                    216

 --------------------------
 OPTIMIZATION STEP:     18
 --------------------------

 Number of electrons:                                                         32
 Number of occupied orbitals:                                                 16
 Number of molecular orbitals:                                                16

 Number of orbital functions:                                                 23
 Number of independent orbital functions:                                     23

 Extrapolation method: ASPC


 SCF WAVEFUNCTION OPTIMIZATION

  ----------------------------------- OT ---------------------------------------
  Minimizer      : DIIS                : direct inversion
                                         in the iterative subspace
                                         using   7 DIIS vectors
                                         safer DIIS on
  Preconditioner : FULL_ALL            : diagonalization, state selective
  Precond_solver : DEFAULT
  stepsize       :    0.15000000                  energy_gap     :    0.08000000
  eps_taylor     :   0.10000E-15                  max_taylor     :             4
  ----------------------------------- OT ---------------------------------------

  Step     Update method      Time    Convergence         Total energy    Change
  ------------------------------------------------------------------------------
     1 OT DIIS     0.15E+00    0.1     0.01094568       -72.1397853866 -7.21E+01
     2 OT DIIS     0.15E+00    0.1     0.00678662       -72.1436684023 -3.88E-03
     3 OT DIIS     0.15E+00    0.1     0.00884905       -72.1437485148 -8.01E-05
     4 OT DIIS     0.15E+00    0.2     0.00137593       -72.1445067993 -7.58E-04
     5 OT DIIS     0.15E+00    0.2     0.00037572       -72.1445283070 -2.15E-05
     6 OT DIIS     0.15E+00    0.2     0.00012921       -72.1445305984 -2.29E-06
     7 OT DIIS     0.15E+00    0.2     0.00002486       -72.1445309266 -3.28E-07

  *** SCF run converged in     7 steps ***


  Electronic density on regular grids:        -32.0000000001       -0.0000000001
  Core density on regular grids:               32.0000000000       -0.0000000000
  Total charge density on r-space grids:       -0.0000000001
  Total charge density g-space grids:          -0.0000000001

  Overlap energy of the core charge distribution:               0.00000000960639
  Self energy of the core charge distribution:               -186.73711017945703
  Core Hamiltonian energy:                                     53.02501480926428
  Hartree energy:                                              78.28789784385313
  Exchange-correlation energy:                                -16.71435476228144
  Dispersion energy:                                           -0.00597864761162

  Total energy:                                               -72.14453092662629

 ENERGY| Total FORCE_EVAL ( QS ) energy [hartree]            -72.144530930448880

 OPT| **************************************************************************
 OPT| Step number                                                             18
 OPT| Optimization method                                                   BFGS
 OPT| Total energy [hartree]                                      -72.1445309304
 OPT| Effective energy change [hartree]                            -0.0015482481
 OPT| Predicted energy change [hartree]                            -0.0011939833
 OPT| Scaling factor                                                0.5861630672
 OPT| Step size                                                     0.1877869066
 OPT| Trust radius                                                  0.4724315332
 OPT| Decrease in energy                                                     YES
 OPT| Used time [s]                                                        1.324
 OPT|
 OPT| Maximum step size                                             0.1877869066
 OPT| Convergence limit for maximum step size                       0.0030000000
 OPT| Maximum step size is converged                                          NO
 OPT|
 OPT| RMS step size                                                 0.0855210855
 OPT| Convergence limit for RMS step size                           0.0015000000
 OPT| RMS step size is converged                                              NO
 OPT|
 OPT| Maximum gradient                                              0.0108624585
 OPT| Convergence limit for maximum gradient                        0.0004500000
 OPT| Maximum gradient is converged                                           NO
 OPT|
 OPT| RMS gradient                                                  0.0050077918
 OPT| Convergence limit for RMS gradient                            0.0003000000
 OPT| RMS gradient is converged                                               NO
 OPT| **************************************************************************
 OPT| Estimated peak process memory after this step [MiB]                    216

 --------------------------
 OPTIMIZATION STEP:     19
 --------------------------

 Number of electrons:                                                         32
 Number of occupied orbitals:                                                 16
 Number of molecular orbitals:                                                16

 Number of orbital functions:                                                 23
 Number of independent orbital functions:                                     23

 Extrapolation method: ASPC


 SCF WAVEFUNCTION OPTIMIZATION

  ----------------------------------- OT ---------------------------------------
  Minimizer      : DIIS                : direct inversion
                                         in the iterative subspace
                                         using   7 DIIS vectors
                                         safer DIIS on
  Preconditioner : FULL_ALL            : diagonalization, state selective
  Precond_solver : DEFAULT
  stepsize       :    0.15000000                  energy_gap     :    0.08000000
  eps_taylor     :   0.10000E-15                  max_taylor     :             4
  ----------------------------------- OT ---------------------------------------

  Step     Update method      Time    Convergence         Total energy    Change
  ------------------------------------------------------------------------------
     1 OT DIIS     0.15E+00    0.1     0.01586399       -72.1356272281 -7.21E+01
     2 OT DIIS     0.15E+00    0.2     0.01020851       -72.1434664470 -7.84E-03
     3 OT DIIS     0.15E+00    0.2     0.01160134       -72.1439210728 -4.55E-04
     4 OT DIIS     0.15E+00    0.2     0.00304559       -72.1452755118 -1.35E-03
     5 OT DIIS     0.15E+00    0.2     0.00072460       -72.1453811027 -1.06E-04
     6 OT DIIS     0.15E+00    0.2     0.00019453       -72.1453883225 -7.22E-06
     7 OT DIIS     0.15E+00    0.2     0.00007262       -72.1453891600 -8.38E-07

  *** SCF run converged in     7 steps ***


  Electronic density on regular grids:        -32.0000000000        0.0000000000
  Core density on regular grids:               32.0000000000       -0.0000000000
  Total charge density on r-space grids:        0.0000000000
  Total charge density g-space grids:           0.0000000000

  Overlap energy of the core charge distribution:               0.00000001105999
  Self energy of the core charge distribution:               -186.73711017945703
  Core Hamiltonian energy:                                     53.04137288798908
  Hartree energy:                                              78.27760249013573
  Exchange-correlation energy:                                -16.72126233911461
  Dispersion energy:                                           -0.00599203063448

  Total energy:                                               -72.14538916002131

 ENERGY| Total FORCE_EVAL ( QS ) energy [hartree]            -72.145389212754964

 OPT| **************************************************************************
 OPT| Step number                                                             19
 OPT| Optimization method                                                   BFGS
 OPT| Total energy [hartree]                                      -72.1453892128
 OPT| Effective energy change [hartree]                            -0.0008582823
 OPT| Predicted energy change [hartree]                            -0.0005833576
 OPT| Scaling factor                                                0.5861630672
 OPT| Step size                                                     0.1084551870
 OPT| Trust radius                                                  0.4724315332
 OPT| Decrease in energy                                                     YES
 OPT| Used time [s]                                                        1.359
 OPT|
 OPT| Maximum step size                                             0.1084551870
 OPT| Convergence limit for maximum step size                       0.0030000000
 OPT| Maximum step size is converged                                          NO
 OPT|
 OPT| RMS step size                                                 0.0415555268
 OPT| Convergence limit for RMS step size                           0.0015000000
 OPT| RMS step size is converged                                              NO
 OPT|
 OPT| Maximum gradient                                              0.0116347643
 OPT| Convergence limit for maximum gradient                        0.0004500000
 OPT| Maximum gradient is converged                                           NO
 OPT|
 OPT| RMS gradient                                                  0.0052202889
 OPT| Convergence limit for RMS gradient                            0.0003000000
 OPT| RMS gradient is converged                                               NO
 OPT| **************************************************************************
 OPT| Estimated peak process memory after this step [MiB]                    216

 --------------------------
 OPTIMIZATION STEP:     20
 --------------------------

 Number of electrons:                                                         32
 Number of occupied orbitals:                                                 16
 Number of molecular orbitals:                                                16

 Number of orbital functions:                                                 23
 Number of independent orbital functions:                                     23

 Extrapolation method: ASPC


 SCF WAVEFUNCTION OPTIMIZATION

  ----------------------------------- OT ---------------------------------------
  Minimizer      : DIIS                : direct inversion
                                         in the iterative subspace
                                         using   7 DIIS vectors
                                         safer DIIS on
  Preconditioner : FULL_ALL            : diagonalization, state selective
  Precond_solver : DEFAULT
  stepsize       :    0.15000000                  energy_gap     :    0.08000000
  eps_taylor     :   0.10000E-15                  max_taylor     :             4
  ----------------------------------- OT ---------------------------------------

  Step     Update method      Time    Convergence         Total energy    Change
  ------------------------------------------------------------------------------
     1 OT DIIS     0.15E+00    0.1     0.01148103       -72.1403358648 -7.21E+01
     2 OT DIIS     0.15E+00    0.1     0.00581655       -72.1448576487 -4.52E-03
     3 OT DIIS     0.15E+00    0.1     0.00797123       -72.1450462374 -1.89E-04
     4 OT DIIS     0.15E+00    0.1     0.00169943       -72.1456805604 -6.34E-04
     5 OT DIIS     0.15E+00    0.2     0.00035580       -72.1457116779 -3.11E-05
     6 OT DIIS     0.15E+00    0.2     0.00011998       -72.1457137530 -2.08E-06
     7 OT DIIS     0.15E+00    0.2     0.00004096       -72.1457140202 -2.67E-07

  *** SCF run converged in     7 steps ***


  Electronic density on regular grids:        -31.9999999998        0.0000000002
  Core density on regular grids:               32.0000000000       -0.0000000000
  Total charge density on r-space grids:        0.0000000002
  Total charge density g-space grids:           0.0000000002

  Overlap energy of the core charge distribution:               0.00000001191102
  Self energy of the core charge distribution:               -186.73711017945703
  Core Hamiltonian energy:                                     53.04537580850827
  Hartree energy:                                              78.27496886947463
  Exchange-correlation energy:                                -16.72293860555946
  Dispersion energy:                                           -0.00600992510756

  Total energy:                                               -72.14571402023014

 ENERGY| Total FORCE_EVAL ( QS ) energy [hartree]            -72.145714036437923

 OPT| **************************************************************************
 OPT| Step number                                                             20
 OPT| Optimization method                                                   BFGS
 OPT| Total energy [hartree]                                      -72.1457140364
 OPT| Effective energy change [hartree]                            -0.0003248237
 OPT| Predicted energy change [hartree]                            -0.0008950630
 OPT| Scaling factor                                                0.5861630672
 OPT| Step size                                                     0.2085690242
 OPT| Trust radius                                                  0.4724315332
 OPT| Decrease in energy                                                     YES
 OPT| Used time [s]                                                        1.331
 OPT|
 OPT| Maximum step size                                             0.2085690242
 OPT| Convergence limit for maximum step size                       0.0030000000
 OPT| Maximum step size is converged                                          NO
 OPT|
 OPT| RMS step size                                                 0.0789440231
 OPT| Convergence limit for RMS step size                           0.0015000000
 OPT| RMS step size is converged                                              NO
 OPT|
 OPT| Maximum gradient                                              0.0198662495
 OPT| Convergence limit for maximum gradient                        0.0004500000
 OPT| Maximum gradient is converged                                           NO
 OPT|
 OPT| RMS gradient                                                  0.0086202987
 OPT| Convergence limit for RMS gradient                            0.0003000000
 OPT| RMS gradient is converged                                               NO
 OPT| **************************************************************************
 OPT| Estimated peak process memory after this step [MiB]                    216

 --------------------------
 OPTIMIZATION STEP:     21
 --------------------------

 Number of electrons:                                                         32
 Number of occupied orbitals:                                                 16
 Number of molecular orbitals:                                                16

 Number of orbital functions:                                                 23
 Number of independent orbital functions:                                     23

 Extrapolation method: ASPC


 SCF WAVEFUNCTION OPTIMIZATION

  ----------------------------------- OT ---------------------------------------
  Minimizer      : DIIS                : direct inversion
                                         in the iterative subspace
                                         using   7 DIIS vectors
                                         safer DIIS on
  Preconditioner : FULL_ALL            : diagonalization, state selective
  Precond_solver : DEFAULT
  stepsize       :    0.15000000                  energy_gap     :    0.08000000
  eps_taylor     :   0.10000E-15                  max_taylor     :             4
  ----------------------------------- OT ---------------------------------------

  Step     Update method      Time    Convergence         Total energy    Change
  ------------------------------------------------------------------------------
     1 OT DIIS     0.15E+00    0.1     0.01738662       -72.1342630883 -7.21E+01
     2 OT DIIS     0.15E+00    0.2     0.00693353       -72.1450149441 -1.08E-02
     3 OT DIIS     0.15E+00    0.2     0.00873646       -72.1457781677 -7.63E-04
     4 OT DIIS     0.15E+00    0.2     0.00146860       -72.1465846151 -8.06E-04
     5 OT DIIS     0.15E+00    0.2     0.00083637       -72.1466033741 -1.88E-05
     6 OT DIIS     0.15E+00    0.2     0.00021256       -72.1466112347 -7.86E-06
     7 OT DIIS     0.15E+00    0.2     0.00003426       -72.1466120233 -7.89E-07

  *** SCF run converged in     7 steps ***


  Electronic density on regular grids:        -31.9999999995        0.0000000005
  Core density on regular grids:               32.0000000000       -0.0000000000
  Total charge density on r-space grids:        0.0000000005
  Total charge density g-space grids:           0.0000000005

  Overlap energy of the core charge distribution:               0.00000001188418
  Self energy of the core charge distribution:               -186.73711017945703
  Core Hamiltonian energy:                                     53.07585599920367
  Hartree energy:                                              78.25276469108336
  Exchange-correlation energy:                                -16.73211504828777
  Dispersion energy:                                           -0.00600749772822

  Total energy:                                               -72.14661202330184

 ENERGY| Total FORCE_EVAL ( QS ) energy [hartree]            -72.146612037153560

 OPT| **************************************************************************
 OPT| Step number                                                             21
 OPT| Optimization method                                                   BFGS
 OPT| Total energy [hartree]                                      -72.1466120372
 OPT| Effective energy change [hartree]                            -0.0008980007
 OPT| Predicted energy change [hartree]                            -0.0006833195
 OPT| Scaling factor                                                0.5861630672
 OPT| Step size                                                     0.0348588305
 OPT| Trust radius                                                  0.4724315332
 OPT| Decrease in energy                                                     YES
 OPT| Used time [s]                                                        1.478
 OPT|
 OPT| Maximum step size                                             0.0348588305
 OPT| Convergence limit for maximum step size                       0.0030000000
 OPT| Maximum step size is converged                                          NO
 OPT|
 OPT| RMS step size                                                 0.0159193947
 OPT| Convergence limit for RMS step size                           0.0015000000
 OPT| RMS step size is converged                                              NO
 OPT|
 OPT| Maximum gradient                                              0.0121602917
 OPT| Convergence limit for maximum gradient                        0.0004500000
 OPT| Maximum gradient is converged                                           NO
 OPT|
 OPT| RMS gradient                                                  0.0044862827
 OPT| Convergence limit for RMS gradient                            0.0003000000
 OPT| RMS gradient is converged                                               NO
 OPT| **************************************************************************
 OPT| Estimated peak process memory after this step [MiB]                    216

 --------------------------
 OPTIMIZATION STEP:     22
 --------------------------

 Number of electrons:                                                         32
 Number of occupied orbitals:                                                 16
 Number of molecular orbitals:                                                16

 Number of orbital functions:                                                 23
 Number of independent orbital functions:                                     23

 Extrapolation method: ASPC


 SCF WAVEFUNCTION OPTIMIZATION

  ----------------------------------- OT ---------------------------------------
  Minimizer      : DIIS                : direct inversion
                                         in the iterative subspace
                                         using   7 DIIS vectors
                                         safer DIIS on
  Preconditioner : FULL_ALL            : diagonalization, state selective
  Precond_solver : DEFAULT
  stepsize       :    0.15000000                  energy_gap     :    0.08000000
  eps_taylor     :   0.10000E-15                  max_taylor     :             4
  ----------------------------------- OT ---------------------------------------

  Step     Update method      Time    Convergence         Total energy    Change
  ------------------------------------------------------------------------------
     1 OT DIIS     0.15E+00    0.1     0.01875116       -72.1322746801 -7.21E+01
     2 OT DIIS     0.15E+00    0.2     0.00737228       -72.1449839189 -1.27E-02
     3 OT DIIS     0.15E+00    0.2     0.00995753       -72.1458739313 -8.90E-04
     4 OT DIIS     0.15E+00    0.2     0.00122595       -72.1468447867 -9.71E-04
     5 OT DIIS     0.15E+00    0.2     0.00070421       -72.1468585779 -1.38E-05
     6 OT DIIS     0.15E+00    0.2     0.00011582       -72.1468652760 -6.70E-06
     7 OT DIIS     0.15E+00    0.2     0.00004384       -72.1468654575 -1.82E-07

  *** SCF run converged in     7 steps ***


  Electronic density on regular grids:        -31.9999999997        0.0000000003
  Core density on regular grids:               32.0000000000       -0.0000000000
  Total charge density on r-space grids:        0.0000000003
  Total charge density g-space grids:           0.0000000003

  Overlap energy of the core charge distribution:               0.00000001101876
  Self energy of the core charge distribution:               -186.73711017945703
  Core Hamiltonian energy:                                     53.10944647827926
  Hartree energy:                                              78.22797830154039
  Exchange-correlation energy:                                -16.74115305414448
  Dispersion energy:                                           -0.00602701475522

  Total energy:                                               -72.14686545751833

 ENERGY| Total FORCE_EVAL ( QS ) energy [hartree]            -72.146865483636859

 OPT| **************************************************************************
 OPT| Step number                                                             22
 OPT| Optimization method                                                   BFGS
 OPT| Total energy [hartree]                                      -72.1468654836
 OPT| Effective energy change [hartree]                            -0.0002534465
 OPT| Predicted energy change [hartree]                            -0.0005802037
 OPT| Scaling factor                                                0.5861630672
 OPT| Step size                                                     0.1241565638
 OPT| Trust radius                                                  0.4724315332
 OPT| Decrease in energy                                                     YES
 OPT| Used time [s]                                                        1.477
 OPT|
 OPT| Maximum step size                                             0.1241565638
 OPT| Convergence limit for maximum step size                       0.0030000000
 OPT| Maximum step size is converged                                          NO
 OPT|
 OPT| RMS step size                                                 0.0567051999
 OPT| Convergence limit for RMS step size                           0.0015000000
 OPT| RMS step size is converged                                              NO
 OPT|
 OPT| Maximum gradient                                              0.0069568508
 OPT| Convergence limit for maximum gradient                        0.0004500000
 OPT| Maximum gradient is converged                                           NO
 OPT|
 OPT| RMS gradient                                                  0.0031747181
 OPT| Convergence limit for RMS gradient                            0.0003000000
 OPT| RMS gradient is converged                                               NO
 OPT| **************************************************************************
 OPT| Estimated peak process memory after this step [MiB]                    216

 --------------------------
 OPTIMIZATION STEP:     23
 --------------------------

 Number of electrons:                                                         32
 Number of occupied orbitals:                                                 16
 Number of molecular orbitals:                                                16

 Number of orbital functions:                                                 23
 Number of independent orbital functions:                                     23

 Extrapolation method: ASPC


 SCF WAVEFUNCTION OPTIMIZATION

  ----------------------------------- OT ---------------------------------------
  Minimizer      : DIIS                : direct inversion
                                         in the iterative subspace
                                         using   7 DIIS vectors
                                         safer DIIS on
  Preconditioner : FULL_ALL            : diagonalization, state selective
  Precond_solver : DEFAULT
  stepsize       :    0.15000000                  energy_gap     :    0.08000000
  eps_taylor     :   0.10000E-15                  max_taylor     :             4
  ----------------------------------- OT ---------------------------------------

  Step     Update method      Time    Convergence         Total energy    Change
  ------------------------------------------------------------------------------
     1 OT DIIS     0.15E+00    0.1     0.01216879       -72.1410398761 -7.21E+01
     2 OT DIIS     0.15E+00    0.2     0.00667866       -72.1461093917 -5.07E-03
     3 OT DIIS     0.15E+00    0.2     0.00943086       -72.1461926657 -8.33E-05
     4 OT DIIS     0.15E+00    0.2     0.00065799       -72.1471189569 -9.26E-04
     5 OT DIIS     0.15E+00    0.2     0.00047181       -72.1471230414 -4.08E-06
     6 OT DIIS     0.15E+00    0.2     0.00005649       -72.1471259759 -2.93E-06

  *** SCF run converged in     6 steps ***


  Electronic density on regular grids:        -31.9999999995        0.0000000005
  Core density on regular grids:               32.0000000000       -0.0000000000
  Total charge density on r-space grids:        0.0000000005
  Total charge density g-space grids:           0.0000000005

  Overlap energy of the core charge distribution:               0.00000001042136
  Self energy of the core charge distribution:               -186.73711017945703
  Core Hamiltonian energy:                                     53.10825863351649
  Hartree energy:                                              78.22867208168341
  Exchange-correlation energy:                                -16.74091804953482
  Dispersion energy:                                           -0.00602847255121

  Total energy:                                               -72.14712597592178

 ENERGY| Total FORCE_EVAL ( QS ) energy [hartree]            -72.147126010837113

 OPT| **************************************************************************
 OPT| Step number                                                             23
 OPT| Optimization method                                                   BFGS
 OPT| Total energy [hartree]                                      -72.1471260108
 OPT| Effective energy change [hartree]                            -0.0002605272
 OPT| Predicted energy change [hartree]                            -0.0002869807
 OPT| Scaling factor                                                0.5861630672
 OPT| Step size                                                     0.0886063125
 OPT| Trust radius                                                  0.4724315332
 OPT| Decrease in energy                                                     YES
 OPT| Used time [s]                                                        1.353
 OPT|
 OPT| Maximum step size                                             0.0886063125
 OPT| Convergence limit for maximum step size                       0.0030000000
 OPT| Maximum step size is converged                                          NO
 OPT|
 OPT| RMS step size                                                 0.0321416064
 OPT| Convergence limit for RMS step size                           0.0015000000
 OPT| RMS step size is converged                                              NO
 OPT|
 OPT| Maximum gradient                                              0.0083668407
 OPT| Convergence limit for maximum gradient                        0.0004500000
 OPT| Maximum gradient is converged                                           NO
 OPT|
 OPT| RMS gradient                                                  0.0029390364
 OPT| Convergence limit for RMS gradient                            0.0003000000
 OPT| RMS gradient is converged                                               NO
 OPT| **************************************************************************
 OPT| Estimated peak process memory after this step [MiB]                    216

 --------------------------
 OPTIMIZATION STEP:     24
 --------------------------

 Number of electrons:                                                         32
 Number of occupied orbitals:                                                 16
 Number of molecular orbitals:                                                16

 Number of orbital functions:                                                 23
 Number of independent orbital functions:                                     23

 Extrapolation method: ASPC


 SCF WAVEFUNCTION OPTIMIZATION

  ----------------------------------- OT ---------------------------------------
  Minimizer      : DIIS                : direct inversion
                                         in the iterative subspace
                                         using   7 DIIS vectors
                                         safer DIIS on
  Preconditioner : FULL_ALL            : diagonalization, state selective
  Precond_solver : DEFAULT
  stepsize       :    0.15000000                  energy_gap     :    0.08000000
  eps_taylor     :   0.10000E-15                  max_taylor     :             4
  ----------------------------------- OT ---------------------------------------

  Step     Update method      Time    Convergence         Total energy    Change
  ------------------------------------------------------------------------------
     1 OT DIIS     0.15E+00    0.2     0.00399487       -72.1467980510 -7.21E+01
     2 OT DIIS     0.15E+00    0.2     0.00272941       -72.1472950507 -4.97E-04
     3 OT DIIS     0.15E+00    0.2     0.00277275       -72.1473383741 -4.33E-05
     4 OT DIIS     0.15E+00    0.2     0.00039469       -72.1474264315 -8.81E-05
     5 OT DIIS     0.15E+00    0.2     0.00012912       -72.1474281935 -1.76E-06
     6 OT DIIS     0.15E+00    0.2     0.00004035       -72.1474284190 -2.26E-07

  *** SCF run converged in     6 steps ***


  Electronic density on regular grids:        -31.9999999990        0.0000000010
  Core density on regular grids:               32.0000000000       -0.0000000000
  Total charge density on r-space grids:        0.0000000010
  Total charge density g-space grids:           0.0000000010

  Overlap energy of the core charge distribution:               0.00000001057274
  Self energy of the core charge distribution:               -186.73711017945703
  Core Hamiltonian energy:                                     53.08785336898043
  Hartree energy:                                              78.24340770402057
  Exchange-correlation energy:                                -16.73556590179209
  Dispersion energy:                                           -0.00601342134402

  Total energy:                                               -72.14742841901941

 ENERGY| Total FORCE_EVAL ( QS ) energy [hartree]            -72.147428447437278

 OPT| **************************************************************************
 OPT| Step number                                                             24
 OPT| Optimization method                                                   BFGS
 OPT| Total energy [hartree]                                      -72.1474284474
 OPT| Effective energy change [hartree]                            -0.0003024366
 OPT| Predicted energy change [hartree]                            -0.0004747895
 OPT| Scaling factor                                                0.5861630672
 OPT| Step size                                                     0.0806991989
 OPT| Trust radius                                                  0.4724315332
 OPT| Decrease in energy                                                     YES
 OPT| Used time [s]                                                        1.544
 OPT|
 OPT| Maximum step size                                             0.0806991989
 OPT| Convergence limit for maximum step size                       0.0030000000
 OPT| Maximum step size is converged                                          NO
 OPT|
 OPT| RMS step size                                                 0.0384307766
 OPT| Convergence limit for RMS step size                           0.0015000000
 OPT| RMS step size is converged                                              NO
 OPT|
 OPT| Maximum gradient                                              0.0113367854
 OPT| Convergence limit for maximum gradient                        0.0004500000
 OPT| Maximum gradient is converged                                           NO
 OPT|
 OPT| RMS gradient                                                  0.0036774618
 OPT| Convergence limit for RMS gradient                            0.0003000000
 OPT| RMS gradient is converged                                               NO
 OPT| **************************************************************************
 OPT| Estimated peak process memory after this step [MiB]                    216

 --------------------------
 OPTIMIZATION STEP:     25
 --------------------------

 Number of electrons:                                                         32
 Number of occupied orbitals:                                                 16
 Number of molecular orbitals:                                                16

 Number of orbital functions:                                                 23
 Number of independent orbital functions:                                     23

 Extrapolation method: ASPC


 SCF WAVEFUNCTION OPTIMIZATION

  ----------------------------------- OT ---------------------------------------
  Minimizer      : DIIS                : direct inversion
                                         in the iterative subspace
                                         using   7 DIIS vectors
                                         safer DIIS on
  Preconditioner : FULL_ALL            : diagonalization, state selective
  Precond_solver : DEFAULT
  stepsize       :    0.15000000                  energy_gap     :    0.08000000
  eps_taylor     :   0.10000E-15                  max_taylor     :             4
  ----------------------------------- OT ---------------------------------------

  Step     Update method      Time    Convergence         Total energy    Change
  ------------------------------------------------------------------------------
     1 OT DIIS     0.15E+00    0.2     0.01098291       -72.1426945079 -7.21E+01
     2 OT DIIS     0.15E+00    0.2     0.00518423       -72.1468361016 -4.14E-03
     3 OT DIIS     0.15E+00    0.2     0.00672027       -72.1470421765 -2.06E-04
     4 OT DIIS     0.15E+00    0.2     0.00135725       -72.1475255442 -4.83E-04
     5 OT DIIS     0.15E+00    0.2     0.00031674       -72.1475443973 -1.89E-05
     6 OT DIIS     0.15E+00    0.2     0.00015641       -72.1475462309 -1.83E-06
     7 OT DIIS     0.15E+00    0.2     0.00003197       -72.1475465299 -2.99E-07

  *** SCF run converged in     7 steps ***


  Electronic density on regular grids:        -31.9999999992        0.0000000008
  Core density on regular grids:               32.0000000000       -0.0000000000
  Total charge density on r-space grids:        0.0000000008
  Total charge density g-space grids:           0.0000000008

  Overlap energy of the core charge distribution:               0.00000001076877
  Self energy of the core charge distribution:               -186.73711017945703
  Core Hamiltonian energy:                                     53.07720458552329
  Hartree energy:                                              78.25138507276279
  Exchange-correlation energy:                                -16.73300502807680
  Dispersion energy:                                           -0.00602099137644

  Total energy:                                               -72.14754652985542

 ENERGY| Total FORCE_EVAL ( QS ) energy [hartree]            -72.147546544235013

 OPT| **************************************************************************
 OPT| Step number                                                             25
 OPT| Optimization method                                                   BFGS
 OPT| Total energy [hartree]                                      -72.1475465442
 OPT| Effective energy change [hartree]                            -0.0001180968
 OPT| Predicted energy change [hartree]                            -0.0002902972
 OPT| Scaling factor                                                0.5861630672
 OPT| Step size                                                     0.0551642388
 OPT| Trust radius                                                  0.4724315332
 OPT| Decrease in energy                                                     YES
 OPT| Used time [s]                                                        1.738
 OPT|
 OPT| Maximum step size                                             0.0551642388
 OPT| Convergence limit for maximum step size                       0.0030000000
 OPT| Maximum step size is converged                                          NO
 OPT|
 OPT| RMS step size                                                 0.0244625473
 OPT| Convergence limit for RMS step size                           0.0015000000
 OPT| RMS step size is converged                                              NO
 OPT|
 OPT| Maximum gradient                                              0.0067500855
 OPT| Convergence limit for maximum gradient                        0.0004500000
 OPT| Maximum gradient is converged                                           NO
 OPT|
 OPT| RMS gradient                                                  0.0024385734
 OPT| Convergence limit for RMS gradient                            0.0003000000
 OPT| RMS gradient is converged                                               NO
 OPT| **************************************************************************
 OPT| Estimated peak process memory after this step [MiB]                    216

 --------------------------
 OPTIMIZATION STEP:     26
 --------------------------

 Number of electrons:                                                         32
 Number of occupied orbitals:                                                 16
 Number of molecular orbitals:                                                16

 Number of orbital functions:                                                 23
 Number of independent orbital functions:                                     23

 Extrapolation method: ASPC


 SCF WAVEFUNCTION OPTIMIZATION

  ----------------------------------- OT ---------------------------------------
  Minimizer      : DIIS                : direct inversion
                                         in the iterative subspace
                                         using   7 DIIS vectors
                                         safer DIIS on
  Preconditioner : FULL_ALL            : diagonalization, state selective
  Precond_solver : DEFAULT
  stepsize       :    0.15000000                  energy_gap     :    0.08000000
  eps_taylor     :   0.10000E-15                  max_taylor     :             4
  ----------------------------------- OT ---------------------------------------

  Step     Update method      Time    Convergence         Total energy    Change
  ------------------------------------------------------------------------------
     1 OT DIIS     0.15E+00    0.2     0.01245874       -72.1411667863 -7.21E+01
     2 OT DIIS     0.15E+00    0.2     0.00482468       -72.1467480399 -5.58E-03
     3 OT DIIS     0.15E+00    0.2     0.00577016       -72.1472203286 -4.72E-04
     4 OT DIIS     0.15E+00    0.2     0.00106610       -72.1475629494 -3.43E-04
     5 OT DIIS     0.15E+00    0.2     0.00047690       -72.1475745578 -1.16E-05
     6 OT DIIS     0.15E+00    0.2     0.00017080       -72.1475773530 -2.80E-06
     7 OT DIIS     0.15E+00    0.2     0.00004289       -72.1475777802 -4.27E-07

  *** SCF run converged in     7 steps ***


  Electronic density on regular grids:        -31.9999999991        0.0000000009
  Core density on regular grids:               32.0000000000       -0.0000000000
  Total charge density on r-space grids:        0.0000000009
  Total charge density g-space grids:           0.0000000009

  Overlap energy of the core charge distribution:               0.00000001029875
  Self energy of the core charge distribution:               -186.73711017945703
  Core Hamiltonian energy:                                     53.07847587549249
  Hartree energy:                                              78.25055884338369
  Exchange-correlation energy:                                -16.73346467605186
  Dispersion energy:                                           -0.00603765383641

  Total energy:                                               -72.14757778017035

 ENERGY| Total FORCE_EVAL ( QS ) energy [hartree]            -72.147577801244339

 OPT| **************************************************************************
 OPT| Step number                                                             26
 OPT| Optimization method                                                   BFGS
 OPT| Total energy [hartree]                                      -72.1475778012
 OPT| Effective energy change [hartree]                            -0.0000312570
 OPT| Predicted energy change [hartree]                            -0.0003392205
 OPT| Scaling factor                                                0.5861630672
 OPT| Step size                                                     0.0581919497
 OPT| Trust radius                                                  0.4724315332
 OPT| Decrease in energy                                                     YES
 OPT| Used time [s]                                                        1.597
 OPT|
 OPT| Maximum step size                                             0.0581919497
 OPT| Convergence limit for maximum step size                       0.0030000000
 OPT| Maximum step size is converged                                          NO
 OPT|
 OPT| RMS step size                                                 0.0325292248
 OPT| Convergence limit for RMS step size                           0.0015000000
 OPT| RMS step size is converged                                              NO
 OPT|
 OPT| Maximum gradient                                              0.0043308533
 OPT| Convergence limit for maximum gradient                        0.0004500000
 OPT| Maximum gradient is converged                                           NO
 OPT|
 OPT| RMS gradient                                                  0.0021509898
 OPT| Convergence limit for RMS gradient                            0.0003000000
 OPT| RMS gradient is converged                                               NO
 OPT| **************************************************************************
 OPT| Estimated peak process memory after this step [MiB]                    216

 --------------------------
 OPTIMIZATION STEP:     27
 --------------------------

 Number of electrons:                                                         32
 Number of occupied orbitals:                                                 16
 Number of molecular orbitals:                                                16

 Number of orbital functions:                                                 23
 Number of independent orbital functions:                                     23

 Extrapolation method: ASPC


 SCF WAVEFUNCTION OPTIMIZATION

  ----------------------------------- OT ---------------------------------------
  Minimizer      : DIIS                : direct inversion
                                         in the iterative subspace
                                         using   7 DIIS vectors
                                         safer DIIS on
  Preconditioner : FULL_ALL            : diagonalization, state selective
  Precond_solver : DEFAULT
  stepsize       :    0.15000000                  energy_gap     :    0.08000000
  eps_taylor     :   0.10000E-15                  max_taylor     :             4
  ----------------------------------- OT ---------------------------------------

  Step     Update method      Time    Convergence         Total energy    Change
  ------------------------------------------------------------------------------
     1 OT DIIS     0.15E+00    0.1     0.01001022       -72.1438268843 -7.21E+01
     2 OT DIIS     0.15E+00    0.2     0.00676793       -72.1470425825 -3.22E-03
     3 OT DIIS     0.15E+00    0.1     0.00760623       -72.1472151522 -1.73E-04
     4 OT DIIS     0.15E+00    0.2     0.00037679       -72.1478570292 -6.42E-04
     5 OT DIIS     0.15E+00    0.2     0.00028419       -72.1478587251 -1.70E-06
     6 OT DIIS     0.15E+00    0.2     0.00003128       -72.1478599106 -1.19E-06

  *** SCF run converged in     6 steps ***


  Electronic density on regular grids:        -31.9999999988        0.0000000012
  Core density on regular grids:               32.0000000000       -0.0000000000
  Total charge density on r-space grids:        0.0000000012
  Total charge density g-space grids:           0.0000000012

  Overlap energy of the core charge distribution:               0.00000001057937
  Self energy of the core charge distribution:               -186.73711017945703
  Core Hamiltonian energy:                                     53.07911357450224
  Hartree energy:                                              78.25000271624258
  Exchange-correlation energy:                                -16.73383934952813
  Dispersion energy:                                           -0.00602668293639

  Total energy:                                               -72.14785991059736

 ENERGY| Total FORCE_EVAL ( QS ) energy [hartree]            -72.147859924935787

 OPT| **************************************************************************
 OPT| Step number                                                             27
 OPT| Optimization method                                                   BFGS
 OPT| Total energy [hartree]                                      -72.1478599249
 OPT| Effective energy change [hartree]                            -0.0002821237
 OPT| Predicted energy change [hartree]                            -0.0002294021
 OPT| Scaling factor                                                0.5861630672
 OPT| Step size                                                     0.0446600611
 OPT| Trust radius                                                  0.4724315332
 OPT| Decrease in energy                                                     YES
 OPT| Used time [s]                                                        1.160
 OPT|
 OPT| Maximum step size                                             0.0446600611
 OPT| Convergence limit for maximum step size                       0.0030000000
 OPT| Maximum step size is converged                                          NO
 OPT|
 OPT| RMS step size                                                 0.0185099187
 OPT| Convergence limit for RMS step size                           0.0015000000
 OPT| RMS step size is converged                                              NO
 OPT|
 OPT| Maximum gradient                                              0.0031994013
 OPT| Convergence limit for maximum gradient                        0.0004500000
 OPT| Maximum gradient is converged                                           NO
 OPT|
 OPT| RMS gradient                                                  0.0014908589
 OPT| Convergence limit for RMS gradient                            0.0003000000
 OPT| RMS gradient is converged                                               NO
 OPT| **************************************************************************
 OPT| Estimated peak process memory after this step [MiB]                    216

 --------------------------
 OPTIMIZATION STEP:     28
 --------------------------

 Number of electrons:                                                         32
 Number of occupied orbitals:                                                 16
 Number of molecular orbitals:                                                16

 Number of orbital functions:                                                 23
 Number of independent orbital functions:                                     23

 Extrapolation method: ASPC


 SCF WAVEFUNCTION OPTIMIZATION

  ----------------------------------- OT ---------------------------------------
  Minimizer      : DIIS                : direct inversion
                                         in the iterative subspace
                                         using   7 DIIS vectors
                                         safer DIIS on
  Preconditioner : FULL_ALL            : diagonalization, state selective
  Precond_solver : DEFAULT
  stepsize       :    0.15000000                  energy_gap     :    0.08000000
  eps_taylor     :   0.10000E-15                  max_taylor     :             4
  ----------------------------------- OT ---------------------------------------

  Step     Update method      Time    Convergence         Total energy    Change
  ------------------------------------------------------------------------------
     1 OT DIIS     0.15E+00    0.1     0.00910511       -72.1448227322 -7.21E+01
     2 OT DIIS     0.15E+00    0.2     0.00759485       -72.1470545526 -2.23E-03
     3 OT DIIS     0.15E+00    0.1     0.00542334       -72.1475052986 -4.51E-04
     4 OT DIIS     0.15E+00    0.2     0.00047980       -72.1478886522 -3.83E-04
     5 OT DIIS     0.15E+00    0.2     0.00031406       -72.1478912338 -2.58E-06
     6 OT DIIS     0.15E+00    0.2     0.00007396       -72.1478925623 -1.33E-06

  *** SCF run converged in     6 steps ***


  Electronic density on regular grids:        -31.9999999987        0.0000000013
  Core density on regular grids:               32.0000000000       -0.0000000000
  Total charge density on r-space grids:        0.0000000013
  Total charge density g-space grids:           0.0000000013

  Overlap energy of the core charge distribution:               0.00000001063217
  Self energy of the core charge distribution:               -186.73711017945703
  Core Hamiltonian energy:                                     53.07918376813474
  Hartree energy:                                              78.24985195640654
  Exchange-correlation energy:                                -16.73379246455991
  Dispersion energy:                                           -0.00602565341195

  Total energy:                                               -72.14789256225545

 ENERGY| Total FORCE_EVAL ( QS ) energy [hartree]            -72.147892653744577

 OPT| **************************************************************************
 OPT| Step number                                                             28
 OPT| Optimization method                                                   BFGS
 OPT| Total energy [hartree]                                      -72.1478926537
 OPT| Effective energy change [hartree]                            -0.0000327288
 OPT| Predicted energy change [hartree]                            -0.0000253246
 OPT| Scaling factor                                                0.5861630672
 OPT| Step size                                                     0.0169192581
 OPT| Trust radius                                                  0.4724315332
 OPT| Decrease in energy                                                     YES
 OPT| Used time [s]                                                        1.164
 OPT|
 OPT| Maximum step size                                             0.0169192581
 OPT| Convergence limit for maximum step size                       0.0030000000
 OPT| Maximum step size is converged                                          NO
 OPT|
 OPT| RMS step size                                                 0.0053452156
 OPT| Convergence limit for RMS step size                           0.0015000000
 OPT| RMS step size is converged                                              NO
 OPT|
 OPT| Maximum gradient                                              0.0033385655
 OPT| Convergence limit for maximum gradient                        0.0004500000
 OPT| Maximum gradient is converged                                           NO
 OPT|
 OPT| RMS gradient                                                  0.0012953035
 OPT| Convergence limit for RMS gradient                            0.0003000000
 OPT| RMS gradient is converged                                               NO
 OPT| **************************************************************************
 OPT| Estimated peak process memory after this step [MiB]                    216

 --------------------------
 OPTIMIZATION STEP:     29
 --------------------------

 Number of electrons:                                                         32
 Number of occupied orbitals:                                                 16
 Number of molecular orbitals:                                                16

 Number of orbital functions:                                                 23
 Number of independent orbital functions:                                     23

 Extrapolation method: ASPC


 SCF WAVEFUNCTION OPTIMIZATION

  ----------------------------------- OT ---------------------------------------
  Minimizer      : DIIS                : direct inversion
                                         in the iterative subspace
                                         using   7 DIIS vectors
                                         safer DIIS on
  Preconditioner : FULL_ALL            : diagonalization, state selective
  Precond_solver : DEFAULT
  stepsize       :    0.15000000                  energy_gap     :    0.08000000
  eps_taylor     :   0.10000E-15                  max_taylor     :             4
  ----------------------------------- OT ---------------------------------------

  Step     Update method      Time    Convergence         Total energy    Change
  ------------------------------------------------------------------------------
     1 OT DIIS     0.15E+00    0.1     0.00434571       -72.1472458767 -7.21E+01
     2 OT DIIS     0.15E+00    0.1     0.00410857       -72.1477078635 -4.62E-04
     3 OT DIIS     0.15E+00    0.2     0.00252499       -72.1478358086 -1.28E-04
     4 OT DIIS     0.15E+00    0.2     0.00025184       -72.1479201627 -8.44E-05
     5 OT DIIS     0.15E+00    0.1     0.00014488       -72.1479209021 -7.39E-07
     6 OT DIIS     0.15E+00    0.2     0.00003218       -72.1479212138 -3.12E-07

  *** SCF run converged in     6 steps ***


  Electronic density on regular grids:        -31.9999999987        0.0000000013
  Core density on regular grids:               32.0000000000       -0.0000000000
  Total charge density on r-space grids:        0.0000000012
  Total charge density g-space grids:           0.0000000012

  Overlap energy of the core charge distribution:               0.00000001063847
  Self energy of the core charge distribution:               -186.73711017945703
  Core Hamiltonian energy:                                     53.07629973459227
  Hartree energy:                                              78.25194232968137
  Exchange-correlation energy:                                -16.73302638996859
  Dispersion energy:                                           -0.00602671932743

  Total energy:                                               -72.14792121384093

 ENERGY| Total FORCE_EVAL ( QS ) energy [hartree]            -72.147921227118601

 OPT| **************************************************************************
 OPT| Step number                                                             29
 OPT| Optimization method                                                   BFGS
 OPT| Total energy [hartree]                                      -72.1479212271
 OPT| Effective energy change [hartree]                            -0.0000285734
 OPT| Predicted energy change [hartree]                            -0.0000227810
 OPT| Scaling factor                                                0.5861630672
 OPT| Step size                                                     0.0120784215
 OPT| Trust radius                                                  0.4724315332
 OPT| Decrease in energy                                                     YES
 OPT| Used time [s]                                                        1.155
 OPT|
 OPT| Maximum step size                                             0.0120784215
 OPT| Convergence limit for maximum step size                       0.0030000000
 OPT| Maximum step size is converged                                          NO
 OPT|
 OPT| RMS step size                                                 0.0042395472
 OPT| Convergence limit for RMS step size                           0.0015000000
 OPT| RMS step size is converged                                              NO
 OPT|
 OPT| Maximum gradient                                              0.0026784291
 OPT| Convergence limit for maximum gradient                        0.0004500000
 OPT| Maximum gradient is converged                                           NO
 OPT|
 OPT| RMS gradient                                                  0.0010663398
 OPT| Convergence limit for RMS gradient                            0.0003000000
 OPT| RMS gradient is converged                                               NO
 OPT| **************************************************************************
 OPT| Estimated peak process memory after this step [MiB]                    216

 --------------------------
 OPTIMIZATION STEP:     30
 --------------------------

 Number of electrons:                                                         32
 Number of occupied orbitals:                                                 16
 Number of molecular orbitals:                                                16

 Number of orbital functions:                                                 23
 Number of independent orbital functions:                                     23

 Extrapolation method: ASPC


 SCF WAVEFUNCTION OPTIMIZATION

  ----------------------------------- OT ---------------------------------------
  Minimizer      : DIIS                : direct inversion
                                         in the iterative subspace
                                         using   7 DIIS vectors
                                         safer DIIS on
  Preconditioner : FULL_ALL            : diagonalization, state selective
  Precond_solver : DEFAULT
  stepsize       :    0.15000000                  energy_gap     :    0.08000000
  eps_taylor     :   0.10000E-15                  max_taylor     :             4
  ----------------------------------- OT ---------------------------------------

  Step     Update method      Time    Convergence         Total energy    Change
  ------------------------------------------------------------------------------
     1 OT DIIS     0.15E+00    0.1     0.00118910       -72.1478996649 -7.21E+01
     2 OT DIIS     0.15E+00    0.1     0.00137896       -72.1479227426 -2.31E-05
     3 OT DIIS     0.15E+00    0.1     0.00050769       -72.1479399784 -1.72E-05
     4 OT DIIS     0.15E+00    0.1     0.00012769       -72.1479442793 -4.30E-06
     5 OT DIIS     0.15E+00    0.1     0.00003179       -72.1479444626 -1.83E-07

  *** SCF run converged in     5 steps ***


  Electronic density on regular grids:        -31.9999999987        0.0000000013
  Core density on regular grids:               32.0000000000       -0.0000000000
  Total charge density on r-space grids:        0.0000000013
  Total charge density g-space grids:           0.0000000013

  Overlap energy of the core charge distribution:               0.00000001041156
  Self energy of the core charge distribution:               -186.73711017945703
  Core Hamiltonian energy:                                     53.07292916485270
  Hartree energy:                                              78.25414924504085
  Exchange-correlation energy:                                -16.73188432945240
  Dispersion energy:                                           -0.00602837397034

  Total energy:                                               -72.14794446257467

 ENERGY| Total FORCE_EVAL ( QS ) energy [hartree]            -72.147944479990628

 OPT| **************************************************************************
 OPT| Step number                                                             30
 OPT| Optimization method                                                   BFGS
 OPT| Total energy [hartree]                                      -72.1479444800
 OPT| Effective energy change [hartree]                            -0.0000232529
 OPT| Predicted energy change [hartree]                            -0.0000218226
 OPT| Scaling factor                                                0.5861630672
 OPT| Step size                                                     0.0116787619
 OPT| Trust radius                                                  0.4724315332
 OPT| Decrease in energy                                                     YES
 OPT| Used time [s]                                                        0.963
 OPT|
 OPT| Maximum step size                                             0.0116787619
 OPT| Convergence limit for maximum step size                       0.0030000000
 OPT| Maximum step size is converged                                          NO
 OPT|
 OPT| RMS step size                                                 0.0046567589
 OPT| Convergence limit for RMS step size                           0.0015000000
 OPT| RMS step size is converged                                              NO
 OPT|
 OPT| Maximum gradient                                              0.0021933328
 OPT| Convergence limit for maximum gradient                        0.0004500000
 OPT| Maximum gradient is converged                                           NO
 OPT|
 OPT| RMS gradient                                                  0.0007869467
 OPT| Convergence limit for RMS gradient                            0.0003000000
 OPT| RMS gradient is converged                                               NO
 OPT| **************************************************************************
 OPT| Estimated peak process memory after this step [MiB]                    216

 --------------------------
 OPTIMIZATION STEP:     31
 --------------------------

 Number of electrons:                                                         32
 Number of occupied orbitals:                                                 16
 Number of molecular orbitals:                                                16

 Number of orbital functions:                                                 23
 Number of independent orbital functions:                                     23

 Extrapolation method: ASPC


 SCF WAVEFUNCTION OPTIMIZATION

  ----------------------------------- OT ---------------------------------------
  Minimizer      : DIIS                : direct inversion
                                         in the iterative subspace
                                         using   7 DIIS vectors
                                         safer DIIS on
  Preconditioner : FULL_ALL            : diagonalization, state selective
  Precond_solver : DEFAULT
  stepsize       :    0.15000000                  energy_gap     :    0.08000000
  eps_taylor     :   0.10000E-15                  max_taylor     :             4
  ----------------------------------- OT ---------------------------------------

  Step     Update method      Time    Convergence         Total energy    Change
  ------------------------------------------------------------------------------
     1 OT DIIS     0.15E+00    0.1     0.00102610       -72.1479261561 -7.21E+01
     2 OT DIIS     0.15E+00    0.2     0.00098511       -72.1479501480 -2.40E-05
     3 OT DIIS     0.15E+00    0.1     0.00053212       -72.1479586202 -8.47E-06
     4 OT DIIS     0.15E+00    0.2     0.00019570       -72.1479623811 -3.76E-06
     5 OT DIIS     0.15E+00    0.1     0.00002409       -72.1479628020 -4.21E-07

  *** SCF run converged in     5 steps ***


  Electronic density on regular grids:        -31.9999999988        0.0000000012
  Core density on regular grids:               32.0000000000       -0.0000000000
  Total charge density on r-space grids:        0.0000000012
  Total charge density g-space grids:           0.0000000012

  Overlap energy of the core charge distribution:               0.00000001040807
  Self energy of the core charge distribution:               -186.73711017945703
  Core Hamiltonian energy:                                     53.07092247332278
  Hartree energy:                                              78.25560498487201
  Exchange-correlation energy:                                -16.73135155468410
  Dispersion energy:                                           -0.00602853642000

  Total energy:                                               -72.14796280195827

 ENERGY| Total FORCE_EVAL ( QS ) energy [hartree]            -72.147962812077139

 OPT| **************************************************************************
 OPT| Step number                                                             31
 OPT| Optimization method                                                   BFGS
 OPT| Total energy [hartree]                                      -72.1479628121
 OPT| Effective energy change [hartree]                            -0.0000183321
 OPT| Predicted energy change [hartree]                            -0.0000186758
 OPT| Scaling factor                                                0.5861630672
 OPT| Step size                                                     0.0136261198
 OPT| Trust radius                                                  0.4724315332
 OPT| Decrease in energy                                                     YES
 OPT| Used time [s]                                                        0.997
 OPT|
 OPT| Maximum step size                                             0.0136261198
 OPT| Convergence limit for maximum step size                       0.0030000000
 OPT| Maximum step size is converged                                          NO
 OPT|
 OPT| RMS step size                                                 0.0048120999
 OPT| Convergence limit for RMS step size                           0.0015000000
 OPT| RMS step size is converged                                              NO
 OPT|
 OPT| Maximum gradient                                              0.0016681227
 OPT| Convergence limit for maximum gradient                        0.0004500000
 OPT| Maximum gradient is converged                                           NO
 OPT|
 OPT| RMS gradient                                                  0.0006285043
 OPT| Convergence limit for RMS gradient                            0.0003000000
 OPT| RMS gradient is converged                                               NO
 OPT| **************************************************************************
 OPT| Estimated peak process memory after this step [MiB]                    216

 --------------------------
 OPTIMIZATION STEP:     32
 --------------------------

 Number of electrons:                                                         32
 Number of occupied orbitals:                                                 16
 Number of molecular orbitals:                                                16

 Number of orbital functions:                                                 23
 Number of independent orbital functions:                                     23

 Extrapolation method: ASPC


 SCF WAVEFUNCTION OPTIMIZATION

  ----------------------------------- OT ---------------------------------------
  Minimizer      : DIIS                : direct inversion
                                         in the iterative subspace
                                         using   7 DIIS vectors
                                         safer DIIS on
  Preconditioner : FULL_ALL            : diagonalization, state selective
  Precond_solver : DEFAULT
  stepsize       :    0.15000000                  energy_gap     :    0.08000000
  eps_taylor     :   0.10000E-15                  max_taylor     :             4
  ----------------------------------- OT ---------------------------------------

  Step     Update method      Time    Convergence         Total energy    Change
  ------------------------------------------------------------------------------
     1 OT DIIS     0.15E+00    0.1     0.00109233       -72.1479308116 -7.21E+01
     2 OT DIIS     0.15E+00    0.1     0.00058677       -72.1479705672 -3.98E-05
     3 OT DIIS     0.15E+00    0.1     0.00057884       -72.1479744359 -3.87E-06
     4 OT DIIS     0.15E+00    0.1     0.00006082       -72.1479789899 -4.55E-06

  *** SCF run converged in     4 steps ***


  Electronic density on regular grids:        -31.9999999988        0.0000000012
  Core density on regular grids:               32.0000000000       -0.0000000000
  Total charge density on r-space grids:        0.0000000012
  Total charge density g-space grids:           0.0000000012

  Overlap energy of the core charge distribution:               0.00000001061253
  Self energy of the core charge distribution:               -186.73711017945703
  Core Hamiltonian energy:                                     53.07160706602360
  Hartree energy:                                              78.25527244089497
  Exchange-correlation energy:                                -16.73172007078630
  Dispersion energy:                                           -0.00602825716319

  Total energy:                                               -72.14797898987543

 ENERGY| Total FORCE_EVAL ( QS ) energy [hartree]            -72.147979030284219

 OPT| **************************************************************************
 OPT| Step number                                                             32
 OPT| Optimization method                                                   BFGS
 OPT| Total energy [hartree]                                      -72.1479790303
 OPT| Effective energy change [hartree]                            -0.0000162182
 OPT| Predicted energy change [hartree]                            -0.0000155321
 OPT| Scaling factor                                                0.5861630672
 OPT| Step size                                                     0.0102697635
 OPT| Trust radius                                                  0.4724315332
 OPT| Decrease in energy                                                     YES
 OPT| Used time [s]                                                        0.837
 OPT|
 OPT| Maximum step size                                             0.0102697635
 OPT| Convergence limit for maximum step size                       0.0030000000
 OPT| Maximum step size is converged                                          NO
 OPT|
 OPT| RMS step size                                                 0.0042954702
 OPT| Convergence limit for RMS step size                           0.0015000000
 OPT| RMS step size is converged                                              NO
 OPT|
 OPT| Maximum gradient                                              0.0017412484
 OPT| Convergence limit for maximum gradient                        0.0004500000
 OPT| Maximum gradient is converged                                           NO
 OPT|
 OPT| RMS gradient                                                  0.0006127875
 OPT| Convergence limit for RMS gradient                            0.0003000000
 OPT| RMS gradient is converged                                               NO
 OPT| **************************************************************************
 OPT| Estimated peak process memory after this step [MiB]                    216

 --------------------------
 OPTIMIZATION STEP:     33
 --------------------------

 Number of electrons:                                                         32
 Number of occupied orbitals:                                                 16
 Number of molecular orbitals:                                                16

 Number of orbital functions:                                                 23
 Number of independent orbital functions:                                     23

 Extrapolation method: ASPC


 SCF WAVEFUNCTION OPTIMIZATION

  ----------------------------------- OT ---------------------------------------
  Minimizer      : DIIS                : direct inversion
                                         in the iterative subspace
                                         using   7 DIIS vectors
                                         safer DIIS on
  Preconditioner : FULL_ALL            : diagonalization, state selective
  Precond_solver : DEFAULT
  stepsize       :    0.15000000                  energy_gap     :    0.08000000
  eps_taylor     :   0.10000E-15                  max_taylor     :             4
  ----------------------------------- OT ---------------------------------------

  Step     Update method      Time    Convergence         Total energy    Change
  ------------------------------------------------------------------------------
     1 OT DIIS     0.15E+00    0.1     0.00109822       -72.1479444574 -7.21E+01
     2 OT DIIS     0.15E+00    0.1     0.00053773       -72.1479859217 -4.15E-05
     3 OT DIIS     0.15E+00    0.1     0.00068271       -72.1479882150 -2.29E-06
     4 OT DIIS     0.15E+00    0.2     0.00014370       -72.1479932651 -5.05E-06
     5 OT DIIS     0.15E+00    0.1     0.00002742       -72.1479934776 -2.12E-07

  *** SCF run converged in     5 steps ***


  Electronic density on regular grids:        -31.9999999988        0.0000000012
  Core density on regular grids:               32.0000000000       -0.0000000000
  Total charge density on r-space grids:        0.0000000012
  Total charge density g-space grids:           0.0000000012

  Overlap energy of the core charge distribution:               0.00000001068394
  Self energy of the core charge distribution:               -186.73711017945703
  Core Hamiltonian energy:                                     53.07294893988902
  Hartree energy:                                              78.25438945325089
  Exchange-correlation energy:                                -16.73219438784334
  Dispersion energy:                                           -0.00602731415867

  Total energy:                                               -72.14799347763518

 ENERGY| Total FORCE_EVAL ( QS ) energy [hartree]            -72.147993490212485

 OPT| **************************************************************************
 OPT| Step number                                                             33
 OPT| Optimization method                                                   BFGS
 OPT| Total energy [hartree]                                      -72.1479934902
 OPT| Effective energy change [hartree]                            -0.0000144599
 OPT| Predicted energy change [hartree]                            -0.0000105511
 OPT| Scaling factor                                                0.5861630672
 OPT| Step size                                                     0.0085222837
 OPT| Trust radius                                                  0.4724315332
 OPT| Decrease in energy                                                     YES
 OPT| Used time [s]                                                        0.963
 OPT|
 OPT| Maximum step size                                             0.0085222837
 OPT| Convergence limit for maximum step size                       0.0030000000
 OPT| Maximum step size is converged                                          NO
 OPT|
 OPT| RMS step size                                                 0.0034275608
 OPT| Convergence limit for RMS step size                           0.0015000000
 OPT| RMS step size is converged                                              NO
 OPT|
 OPT| Maximum gradient                                              0.0014271086
 OPT| Convergence limit for maximum gradient                        0.0004500000
 OPT| Maximum gradient is converged                                           NO
 OPT|
 OPT| RMS gradient                                                  0.0004961861
 OPT| Convergence limit for RMS gradient                            0.0003000000
 OPT| RMS gradient is converged                                               NO
 OPT| **************************************************************************
 OPT| Estimated peak process memory after this step [MiB]                    216

 --------------------------
 OPTIMIZATION STEP:     34
 --------------------------

 Number of electrons:                                                         32
 Number of occupied orbitals:                                                 16
 Number of molecular orbitals:                                                16

 Number of orbital functions:                                                 23
 Number of independent orbital functions:                                     23

 Extrapolation method: ASPC


 SCF WAVEFUNCTION OPTIMIZATION

  ----------------------------------- OT ---------------------------------------
  Minimizer      : DIIS                : direct inversion
                                         in the iterative subspace
                                         using   7 DIIS vectors
                                         safer DIIS on
  Preconditioner : FULL_ALL            : diagonalization, state selective
  Precond_solver : DEFAULT
  stepsize       :    0.15000000                  energy_gap     :    0.08000000
  eps_taylor     :   0.10000E-15                  max_taylor     :             4
  ----------------------------------- OT ---------------------------------------

  Step     Update method      Time    Convergence         Total energy    Change
  ------------------------------------------------------------------------------
     1 OT DIIS     0.15E+00    0.1     0.00086930       -72.1479716216 -7.21E+01
     2 OT DIIS     0.15E+00    0.2     0.00035502       -72.1479981488 -2.65E-05
     3 OT DIIS     0.15E+00    0.1     0.00038075       -72.1480003006 -2.15E-06
     4 OT DIIS     0.15E+00    0.1     0.00005330       -72.1480021050 -1.80E-06

  *** SCF run converged in     4 steps ***


  Electronic density on regular grids:        -31.9999999988        0.0000000012
  Core density on regular grids:               32.0000000000       -0.0000000000
  Total charge density on r-space grids:        0.0000000012
  Total charge density g-space grids:           0.0000000012

  Overlap energy of the core charge distribution:               0.00000001076854
  Self energy of the core charge distribution:               -186.73711017945703
  Core Hamiltonian energy:                                     53.07642099884369
  Hartree energy:                                              78.25195161225808
  Exchange-correlation energy:                                -16.73323781528289
  Dispersion energy:                                           -0.00602673211967

  Total energy:                                               -72.14800210498930

 ENERGY| Total FORCE_EVAL ( QS ) energy [hartree]            -72.148002127330201

 OPT| **************************************************************************
 OPT| Step number                                                             34
 OPT| Optimization method                                                   BFGS
 OPT| Total energy [hartree]                                      -72.1480021273
 OPT| Effective energy change [hartree]                            -0.0000086371
 OPT| Predicted energy change [hartree]                            -0.0000068833
 OPT| Scaling factor                                                0.5861630672
 OPT| Step size                                                     0.0077360173
 OPT| Trust radius                                                  0.4724315332
 OPT| Decrease in energy                                                     YES
 OPT| Used time [s]                                                        0.840
 OPT|
 OPT| Maximum step size                                             0.0077360173
 OPT| Convergence limit for maximum step size                       0.0030000000
 OPT| Maximum step size is converged                                          NO
 OPT|
 OPT| RMS step size                                                 0.0034929936
 OPT| Convergence limit for RMS step size                           0.0015000000
 OPT| RMS step size is converged                                              NO
 OPT|
 OPT| Maximum gradient                                              0.0014136613
 OPT| Convergence limit for maximum gradient                        0.0004500000
 OPT| Maximum gradient is converged                                           NO
 OPT|
 OPT| RMS gradient                                                  0.0004389338
 OPT| Convergence limit for RMS gradient                            0.0003000000
 OPT| RMS gradient is converged                                               NO
 OPT| **************************************************************************
 OPT| Estimated peak process memory after this step [MiB]                    216

 --------------------------
 OPTIMIZATION STEP:     35
 --------------------------

 Number of electrons:                                                         32
 Number of occupied orbitals:                                                 16
 Number of molecular orbitals:                                                16

 Number of orbital functions:                                                 23
 Number of independent orbital functions:                                     23

 Extrapolation method: ASPC


 SCF WAVEFUNCTION OPTIMIZATION

  ----------------------------------- OT ---------------------------------------
  Minimizer      : DIIS                : direct inversion
                                         in the iterative subspace
                                         using   7 DIIS vectors
                                         safer DIIS on
  Preconditioner : FULL_ALL            : diagonalization, state selective
  Precond_solver : DEFAULT
  stepsize       :    0.15000000                  energy_gap     :    0.08000000
  eps_taylor     :   0.10000E-15                  max_taylor     :             4
  ----------------------------------- OT ---------------------------------------

  Step     Update method      Time    Convergence         Total energy    Change
  ------------------------------------------------------------------------------
     1 OT DIIS     0.15E+00    0.1     0.00051276       -72.1479972016 -7.21E+01
     2 OT DIIS     0.15E+00    0.1     0.00038204       -72.1480043753 -7.17E-06
     3 OT DIIS     0.15E+00    0.1     0.00028455       -72.1480055996 -1.22E-06
     4 OT DIIS     0.15E+00    0.1     0.00011120       -72.1480065208 -9.21E-07
     5 OT DIIS     0.15E+00    0.2     0.00001151       -72.1480066522 -1.31E-07

  *** SCF run converged in     5 steps ***


  Electronic density on regular grids:        -31.9999999988        0.0000000012
  Core density on regular grids:               32.0000000000       -0.0000000000
  Total charge density on r-space grids:        0.0000000012
  Total charge density g-space grids:           0.0000000012

  Overlap energy of the core charge distribution:               0.00000001073322
  Self energy of the core charge distribution:               -186.73711017945703
  Core Hamiltonian energy:                                     53.07878429912525
  Hartree energy:                                              78.25024987088320
  Exchange-correlation energy:                                -16.73390406475233
  Dispersion energy:                                           -0.00602658875511

  Total energy:                                               -72.14800665222279

 ENERGY| Total FORCE_EVAL ( QS ) energy [hartree]            -72.148006654211258

 OPT| **************************************************************************
 OPT| Step number                                                             35
 OPT| Optimization method                                                   BFGS
 OPT| Total energy [hartree]                                      -72.1480066542
 OPT| Effective energy change [hartree]                            -0.0000045269
 OPT| Predicted energy change [hartree]                            -0.0000032036
 OPT| Scaling factor                                                0.5861630672
 OPT| Step size                                                     0.0070585564
 OPT| Trust radius                                                  0.4724315332
 OPT| Decrease in energy                                                     YES
 OPT| Used time [s]                                                        1.028
 OPT|
 OPT| Maximum step size                                             0.0070585564
 OPT| Convergence limit for maximum step size                       0.0030000000
 OPT| Maximum step size is converged                                          NO
 OPT|
 OPT| RMS step size                                                 0.0025711367
 OPT| Convergence limit for RMS step size                           0.0015000000
 OPT| RMS step size is converged                                              NO
 OPT|
 OPT| Maximum gradient                                              0.0013564046
 OPT| Convergence limit for maximum gradient                        0.0004500000
 OPT| Maximum gradient is converged                                           NO
 OPT|
 OPT| RMS gradient                                                  0.0004224462
 OPT| Convergence limit for RMS gradient                            0.0003000000
 OPT| RMS gradient is converged                                               NO
 OPT| **************************************************************************
 OPT| Estimated peak process memory after this step [MiB]                    216

 --------------------------
 OPTIMIZATION STEP:     36
 --------------------------

 Number of electrons:                                                         32
 Number of occupied orbitals:                                                 16
 Number of molecular orbitals:                                                16

 Number of orbital functions:                                                 23
 Number of independent orbital functions:                                     23

 Extrapolation method: ASPC


 SCF WAVEFUNCTION OPTIMIZATION

  ----------------------------------- OT ---------------------------------------
  Minimizer      : DIIS                : direct inversion
                                         in the iterative subspace
                                         using   7 DIIS vectors
                                         safer DIIS on
  Preconditioner : FULL_ALL            : diagonalization, state selective
  Precond_solver : DEFAULT
  stepsize       :    0.15000000                  energy_gap     :    0.08000000
  eps_taylor     :   0.10000E-15                  max_taylor     :             4
  ----------------------------------- OT ---------------------------------------

  Step     Update method      Time    Convergence         Total energy    Change
  ------------------------------------------------------------------------------
     1 OT DIIS     0.15E+00    0.1     0.00050659       -72.1480034876 -7.21E+01
     2 OT DIIS     0.15E+00    0.1     0.00035958       -72.1480110434 -7.56E-06
     3 OT DIIS     0.15E+00    0.1     0.00032920       -72.1480118597 -8.16E-07
     4 OT DIIS     0.15E+00    0.1     0.00007465       -72.1480130723 -1.21E-06

  *** SCF run converged in     4 steps ***


  Electronic density on regular grids:        -31.9999999988        0.0000000012
  Core density on regular grids:               32.0000000000       -0.0000000000
  Total charge density on r-space grids:        0.0000000012
  Total charge density g-space grids:           0.0000000012

  Overlap energy of the core charge distribution:               0.00000001069201
  Self energy of the core charge distribution:               -186.73711017945703
  Core Hamiltonian energy:                                     53.08174285681012
  Hartree energy:                                              78.24813730612064
  Exchange-correlation energy:                                -16.73475625838345
  Dispersion energy:                                           -0.00602680805455

  Total energy:                                               -72.14801307227225

 ENERGY| Total FORCE_EVAL ( QS ) energy [hartree]            -72.148013137815354

 OPT| **************************************************************************
 OPT| Step number                                                             36
 OPT| Optimization method                                                   BFGS
 OPT| Total energy [hartree]                                      -72.1480131378
 OPT| Effective energy change [hartree]                            -0.0000064836
 OPT| Predicted energy change [hartree]                            -0.0000045047
 OPT| Scaling factor                                                0.5861630672
 OPT| Step size                                                     0.0119469222
 OPT| Trust radius                                                  0.4724315332
 OPT| Decrease in energy                                                     YES
 OPT| Used time [s]                                                        0.884
 OPT|
 OPT| Maximum step size                                             0.0119469222
 OPT| Convergence limit for maximum step size                       0.0030000000
 OPT| Maximum step size is converged                                          NO
 OPT|
 OPT| RMS step size                                                 0.0042715757
 OPT| Convergence limit for RMS step size                           0.0015000000
 OPT| RMS step size is converged                                              NO
 OPT|
 OPT| Maximum gradient                                              0.0011174653
 OPT| Convergence limit for maximum gradient                        0.0004500000
 OPT| Maximum gradient is converged                                           NO
 OPT|
 OPT| RMS gradient                                                  0.0004213904
 OPT| Convergence limit for RMS gradient                            0.0003000000
 OPT| RMS gradient is converged                                               NO
 OPT| **************************************************************************
 OPT| Estimated peak process memory after this step [MiB]                    216

 --------------------------
 OPTIMIZATION STEP:     37
 --------------------------

 Number of electrons:                                                         32
 Number of occupied orbitals:                                                 16
 Number of molecular orbitals:                                                16

 Number of orbital functions:                                                 23
 Number of independent orbital functions:                                     23

 Extrapolation method: ASPC


 SCF WAVEFUNCTION OPTIMIZATION

  ----------------------------------- OT ---------------------------------------
  Minimizer      : DIIS                : direct inversion
                                         in the iterative subspace
                                         using   7 DIIS vectors
                                         safer DIIS on
  Preconditioner : FULL_ALL            : diagonalization, state selective
  Precond_solver : DEFAULT
  stepsize       :    0.15000000                  energy_gap     :    0.08000000
  eps_taylor     :   0.10000E-15                  max_taylor     :             4
  ----------------------------------- OT ---------------------------------------

  Step     Update method      Time    Convergence         Total energy    Change
  ------------------------------------------------------------------------------
     1 OT DIIS     0.15E+00    0.1     0.00030031       -72.1480161748 -7.21E+01
     2 OT DIIS     0.15E+00    0.1     0.00020211       -72.1480188858 -2.71E-06
     3 OT DIIS     0.15E+00    0.1     0.00019342       -72.1480191503 -2.65E-07
     4 OT DIIS     0.15E+00    0.2     0.00005085       -72.1480195627 -4.12E-07

  *** SCF run converged in     4 steps ***


  Electronic density on regular grids:        -31.9999999988        0.0000000012
  Core density on regular grids:               32.0000000000       -0.0000000000
  Total charge density on r-space grids:        0.0000000012
  Total charge density g-space grids:           0.0000000012

  Overlap energy of the core charge distribution:               0.00000001064370
  Self energy of the core charge distribution:               -186.73711017945703
  Core Hamiltonian energy:                                     53.08424311998899
  Hartree energy:                                              78.24628953901490
  Exchange-correlation energy:                                -16.73541489177310
  Dispersion energy:                                           -0.00602716110461

  Total energy:                                               -72.14801956268715

 ENERGY| Total FORCE_EVAL ( QS ) energy [hartree]            -72.148019592568161

 OPT| **************************************************************************
 OPT| Step number                                                             37
 OPT| Optimization method                                                   BFGS
 OPT| Total energy [hartree]                                      -72.1480195926
 OPT| Effective energy change [hartree]                            -0.0000064548
 OPT| Predicted energy change [hartree]                            -0.0000040284
 OPT| Scaling factor                                                0.5861630672
 OPT| Step size                                                     0.0125410209
 OPT| Trust radius                                                  0.4724315332
 OPT| Decrease in energy                                                     YES
 OPT| Used time [s]                                                        0.867
 OPT|
 OPT| Maximum step size                                             0.0125410209
 OPT| Convergence limit for maximum step size                       0.0030000000
 OPT| Maximum step size is converged                                          NO
 OPT|
 OPT| RMS step size                                                 0.0043869261
 OPT| Convergence limit for RMS step size                           0.0015000000
 OPT| RMS step size is converged                                              NO
 OPT|
 OPT| Maximum gradient                                              0.0011861041
 OPT| Convergence limit for maximum gradient                        0.0004500000
 OPT| Maximum gradient is converged                                           NO
 OPT|
 OPT| RMS gradient                                                  0.0004047541
 OPT| Convergence limit for RMS gradient                            0.0003000000
 OPT| RMS gradient is converged                                               NO
 OPT| **************************************************************************
 OPT| Estimated peak process memory after this step [MiB]                    216

 --------------------------
 OPTIMIZATION STEP:     38
 --------------------------

 Number of electrons:                                                         32
 Number of occupied orbitals:                                                 16
 Number of molecular orbitals:                                                16

 Number of orbital functions:                                                 23
 Number of independent orbital functions:                                     23

 Extrapolation method: ASPC


 SCF WAVEFUNCTION OPTIMIZATION

  ----------------------------------- OT ---------------------------------------
  Minimizer      : DIIS                : direct inversion
                                         in the iterative subspace
                                         using   7 DIIS vectors
                                         safer DIIS on
  Preconditioner : FULL_ALL            : diagonalization, state selective
  Precond_solver : DEFAULT
  stepsize       :    0.15000000                  energy_gap     :    0.08000000
  eps_taylor     :   0.10000E-15                  max_taylor     :             4
  ----------------------------------- OT ---------------------------------------

  Step     Update method      Time    Convergence         Total energy    Change
  ------------------------------------------------------------------------------
     1 OT DIIS     0.15E+00    0.1     0.00086902       -72.1479990015 -7.21E+01
     2 OT DIIS     0.15E+00    0.1     0.00030405       -72.1480269350 -2.79E-05
     3 OT DIIS     0.15E+00    0.1     0.00013336       -72.1480306701 -3.74E-06
     4 OT DIIS     0.15E+00    0.1     0.00003505       -72.1480308493 -1.79E-07

  *** SCF run converged in     4 steps ***


  Electronic density on regular grids:        -31.9999999988        0.0000000012
  Core density on regular grids:               32.0000000000       -0.0000000000
  Total charge density on r-space grids:        0.0000000012
  Total charge density g-space grids:           0.0000000012

  Overlap energy of the core charge distribution:               0.00000001055096
  Self energy of the core charge distribution:               -186.73711017945703
  Core Hamiltonian energy:                                     53.08648530258462
  Hartree energy:                                              78.24461156957543
  Exchange-correlation energy:                                -16.73598989835503
  Dispersion energy:                                           -0.00602765415029

  Total energy:                                               -72.14803084925133

 ENERGY| Total FORCE_EVAL ( QS ) energy [hartree]            -72.148030860428008

 OPT| **************************************************************************
 OPT| Step number                                                             38
 OPT| Optimization method                                                   BFGS
 OPT| Total energy [hartree]                                      -72.1480308604
 OPT| Effective energy change [hartree]                            -0.0000112679
 OPT| Predicted energy change [hartree]                            -0.0000081882
 OPT| Scaling factor                                                0.5861630672
 OPT| Step size                                                     0.0285618847
 OPT| Trust radius                                                  0.4724315332
 OPT| Decrease in energy                                                     YES
 OPT| Used time [s]                                                        0.846
 OPT|
 OPT| Maximum step size                                             0.0285618847
 OPT| Convergence limit for maximum step size                       0.0030000000
 OPT| Maximum step size is converged                                          NO
 OPT|
 OPT| RMS step size                                                 0.0101351612
 OPT| Convergence limit for RMS step size                           0.0015000000
 OPT| RMS step size is converged                                              NO
 OPT|
 OPT| Maximum gradient                                              0.0012111978
 OPT| Convergence limit for maximum gradient                        0.0004500000
 OPT| Maximum gradient is converged                                           NO
 OPT|
 OPT| RMS gradient                                                  0.0005475065
 OPT| Convergence limit for RMS gradient                            0.0003000000
 OPT| RMS gradient is converged                                               NO
 OPT| **************************************************************************
 OPT| Estimated peak process memory after this step [MiB]                    216

 --------------------------
 OPTIMIZATION STEP:     39
 --------------------------

 Number of electrons:                                                         32
 Number of occupied orbitals:                                                 16
 Number of molecular orbitals:                                                16

 Number of orbital functions:                                                 23
 Number of independent orbital functions:                                     23

 Extrapolation method: ASPC


 SCF WAVEFUNCTION OPTIMIZATION

  ----------------------------------- OT ---------------------------------------
  Minimizer      : DIIS                : direct inversion
                                         in the iterative subspace
                                         using   7 DIIS vectors
                                         safer DIIS on
  Preconditioner : FULL_ALL            : diagonalization, state selective
  Precond_solver : DEFAULT
  stepsize       :    0.15000000                  energy_gap     :    0.08000000
  eps_taylor     :   0.10000E-15                  max_taylor     :             4
  ----------------------------------- OT ---------------------------------------

  Step     Update method      Time    Convergence         Total energy    Change
  ------------------------------------------------------------------------------
     1 OT DIIS     0.15E+00    0.1     0.00073378       -72.1480229256 -7.21E+01
     2 OT DIIS     0.15E+00    0.1     0.00027322       -72.1480425275 -1.96E-05
     3 OT DIIS     0.15E+00    0.1     0.00024678       -72.1480446547 -2.13E-06
     4 OT DIIS     0.15E+00    0.1     0.00004177       -72.1480453648 -7.10E-07

  *** SCF run converged in     4 steps ***


  Electronic density on regular grids:        -31.9999999988        0.0000000012
  Core density on regular grids:               32.0000000000       -0.0000000000
  Total charge density on r-space grids:        0.0000000012
  Total charge density g-space grids:           0.0000000012

  Overlap energy of the core charge distribution:               0.00000001043249
  Self energy of the core charge distribution:               -186.73711017945703
  Core Hamiltonian energy:                                     53.08684209224936
  Hartree energy:                                              78.24418160819476
  Exchange-correlation energy:                                -16.73593099959125
  Dispersion energy:                                           -0.00602789661308

  Total energy:                                               -72.14804536478474

 ENERGY| Total FORCE_EVAL ( QS ) energy [hartree]            -72.148045377633579

 OPT| **************************************************************************
 OPT| Step number                                                             39
 OPT| Optimization method                                                   BFGS
 OPT| Total energy [hartree]                                      -72.1480453776
 OPT| Effective energy change [hartree]                            -0.0000145172
 OPT| Predicted energy change [hartree]                            -0.0000086668
 OPT| Scaling factor                                                0.5861630672
 OPT| Step size                                                     0.0302988707
 OPT| Trust radius                                                  0.4724315332
 OPT| Decrease in energy                                                     YES
 OPT| Used time [s]                                                        0.817
 OPT|
 OPT| Maximum step size                                             0.0302988707
 OPT| Convergence limit for maximum step size                       0.0030000000
 OPT| Maximum step size is converged                                          NO
 OPT|
 OPT| RMS step size                                                 0.0108767909
 OPT| Convergence limit for RMS step size                           0.0015000000
 OPT| RMS step size is converged                                              NO
 OPT|
 OPT| Maximum gradient                                              0.0020940170
 OPT| Convergence limit for maximum gradient                        0.0004500000
 OPT| Maximum gradient is converged                                           NO
 OPT|
 OPT| RMS gradient                                                  0.0007481817
 OPT| Convergence limit for RMS gradient                            0.0003000000
 OPT| RMS gradient is converged                                               NO
 OPT| **************************************************************************
 OPT| Estimated peak process memory after this step [MiB]                    216

 --------------------------
 OPTIMIZATION STEP:     40
 --------------------------

 Number of electrons:                                                         32
 Number of occupied orbitals:                                                 16
 Number of molecular orbitals:                                                16

 Number of orbital functions:                                                 23
 Number of independent orbital functions:                                     23

 Extrapolation method: ASPC


 SCF WAVEFUNCTION OPTIMIZATION

  ----------------------------------- OT ---------------------------------------
  Minimizer      : DIIS                : direct inversion
                                         in the iterative subspace
                                         using   7 DIIS vectors
                                         safer DIIS on
  Preconditioner : FULL_ALL            : diagonalization, state selective
  Precond_solver : DEFAULT
  stepsize       :    0.15000000                  energy_gap     :    0.08000000
  eps_taylor     :   0.10000E-15                  max_taylor     :             4
  ----------------------------------- OT ---------------------------------------

  Step     Update method      Time    Convergence         Total energy    Change
  ------------------------------------------------------------------------------
     1 OT DIIS     0.15E+00    0.1     0.00339136       -72.1475808144 -7.21E+01
     2 OT DIIS     0.15E+00    0.1     0.00118468       -72.1480076059 -4.27E-04
     3 OT DIIS     0.15E+00    0.1     0.00016243       -72.1480678122 -6.02E-05
     4 OT DIIS     0.15E+00    0.2     0.00018775       -72.1480679655 -1.53E-07
     5 OT DIIS     0.15E+00    0.2     0.00004368       -72.1480683224 -3.57E-07

  *** SCF run converged in     5 steps ***


  Electronic density on regular grids:        -31.9999999988        0.0000000012
  Core density on regular grids:               32.0000000000       -0.0000000000
  Total charge density on r-space grids:        0.0000000012
  Total charge density g-space grids:           0.0000000012

  Overlap energy of the core charge distribution:               0.00000000977603
  Self energy of the core charge distribution:               -186.73711017945703
  Core Hamiltonian energy:                                     53.08297196029915
  Hartree energy:                                              78.24610536213984
  Exchange-correlation energy:                                -16.73400776184045
  Dispersion energy:                                           -0.00602771336090

  Total energy:                                               -72.14806832244338

 ENERGY| Total FORCE_EVAL ( QS ) energy [hartree]            -72.148068343927108

 OPT| **************************************************************************
 OPT| Step number                                                             40
 OPT| Optimization method                                                   BFGS
 OPT| Total energy [hartree]                                      -72.1480683439
 OPT| Effective energy change [hartree]                            -0.0000229663
 OPT| Predicted energy change [hartree]                            -0.0000294108
 OPT| Scaling factor                                                0.5861630672
 OPT| Step size                                                     0.0935052059
 OPT| Trust radius                                                  0.4724315332
 OPT| Decrease in energy                                                     YES
 OPT| Used time [s]                                                        0.988
 OPT|
 OPT| Maximum step size                                             0.0935052059
 OPT| Convergence limit for maximum step size                       0.0030000000
 OPT| Maximum step size is converged                                          NO
 OPT|
 OPT| RMS step size                                                 0.0342213534
 OPT| Convergence limit for RMS step size                           0.0015000000
 OPT| RMS step size is converged                                              NO
 OPT|
 OPT| Maximum gradient                                              0.0050566143
 OPT| Convergence limit for maximum gradient                        0.0004500000
 OPT| Maximum gradient is converged                                           NO
 OPT|
 OPT| RMS gradient                                                  0.0018204301
 OPT| Convergence limit for RMS gradient                            0.0003000000
 OPT| RMS gradient is converged                                               NO
 OPT| **************************************************************************
 OPT| Estimated peak process memory after this step [MiB]                    216

 --------------------------
 OPTIMIZATION STEP:     41
 --------------------------

 Number of electrons:                                                         32
 Number of occupied orbitals:                                                 16
 Number of molecular orbitals:                                                16

 Number of orbital functions:                                                 23
 Number of independent orbital functions:                                     23

 Extrapolation method: ASPC


 SCF WAVEFUNCTION OPTIMIZATION

  ----------------------------------- OT ---------------------------------------
  Minimizer      : DIIS                : direct inversion
                                         in the iterative subspace
                                         using   7 DIIS vectors
                                         safer DIIS on
  Preconditioner : FULL_ALL            : diagonalization, state selective
  Precond_solver : DEFAULT
  stepsize       :    0.15000000                  energy_gap     :    0.08000000
  eps_taylor     :   0.10000E-15                  max_taylor     :             4
  ----------------------------------- OT ---------------------------------------

  Step     Update method      Time    Convergence         Total energy    Change
  ------------------------------------------------------------------------------
     1 OT DIIS     0.15E+00    0.1     0.00845287       -72.1450783130 -7.21E+01
     2 OT DIIS     0.15E+00    0.1     0.00300094       -72.1477216337 -2.64E-03
     3 OT DIIS     0.15E+00    0.1     0.00167795       -72.1480707396 -3.49E-04
     4 OT DIIS     0.15E+00    0.2     0.00036169       -72.1480994595 -2.87E-05
     5 OT DIIS     0.15E+00    0.2     0.00026800       -72.1481007194 -1.26E-06
     6 OT DIIS     0.15E+00    0.2     0.00007332       -72.1481014884 -7.69E-07

  *** SCF run converged in     6 steps ***


  Electronic density on regular grids:        -31.9999999988        0.0000000012
  Core density on regular grids:               32.0000000000       -0.0000000000
  Total charge density on r-space grids:        0.0000000012
  Total charge density g-space grids:           0.0000000012

  Overlap energy of the core charge distribution:               0.00000001034868
  Self energy of the core charge distribution:               -186.73711017945703
  Core Hamiltonian energy:                                     53.08267767835314
  Hartree energy:                                              78.24659960638157
  Exchange-correlation energy:                                -16.73424163165547
  Dispersion energy:                                           -0.00602697241161

  Total energy:                                               -72.14810148844073

 ENERGY| Total FORCE_EVAL ( QS ) energy [hartree]            -72.148101560383907

 OPT| **************************************************************************
 OPT| Step number                                                             41
 OPT| Optimization method                                                   BFGS
 OPT| Total energy [hartree]                                      -72.1481015604
 OPT| Effective energy change [hartree]                            -0.0000332165
 OPT| Predicted energy change [hartree]                            -0.0000266065
 OPT| Scaling factor                                                0.5861630672
 OPT| Step size                                                     0.0192994578
 OPT| Trust radius                                                  0.4724315332
 OPT| Decrease in energy                                                     YES
 OPT| Used time [s]                                                        1.214
 OPT|
 OPT| Maximum step size                                             0.0192994578
 OPT| Convergence limit for maximum step size                       0.0030000000
 OPT| Maximum step size is converged                                          NO
 OPT|
 OPT| RMS step size                                                 0.0056830532
 OPT| Convergence limit for RMS step size                           0.0015000000
 OPT| RMS step size is converged                                              NO
 OPT|
 OPT| Maximum gradient                                              0.0026634663
 OPT| Convergence limit for maximum gradient                        0.0004500000
 OPT| Maximum gradient is converged                                           NO
 OPT|
 OPT| RMS gradient                                                  0.0009323175
 OPT| Convergence limit for RMS gradient                            0.0003000000
 OPT| RMS gradient is converged                                               NO
 OPT| **************************************************************************
 OPT| Estimated peak process memory after this step [MiB]                    216

 --------------------------
 OPTIMIZATION STEP:     42
 --------------------------

 Number of electrons:                                                         32
 Number of occupied orbitals:                                                 16
 Number of molecular orbitals:                                                16

 Number of orbital functions:                                                 23
 Number of independent orbital functions:                                     23

 Extrapolation method: ASPC


 SCF WAVEFUNCTION OPTIMIZATION

  ----------------------------------- OT ---------------------------------------
  Minimizer      : DIIS                : direct inversion
                                         in the iterative subspace
                                         using   7 DIIS vectors
                                         safer DIIS on
  Preconditioner : FULL_ALL            : diagonalization, state selective
  Precond_solver : DEFAULT
  stepsize       :    0.15000000                  energy_gap     :    0.08000000
  eps_taylor     :   0.10000E-15                  max_taylor     :             4
  ----------------------------------- OT ---------------------------------------

  Step     Update method      Time    Convergence         Total energy    Change
  ------------------------------------------------------------------------------
     1 OT DIIS     0.15E+00    0.1     0.00928869       -72.1444842376 -7.21E+01
     2 OT DIIS     0.15E+00    0.2     0.00326620       -72.1476818874 -3.20E-03
     3 OT DIIS     0.15E+00    0.2     0.00112691       -72.1481219167 -4.40E-04
     4 OT DIIS     0.15E+00    0.2     0.00034774       -72.1481362779 -1.44E-05
     5 OT DIIS     0.15E+00    0.2     0.00031244       -72.1481372944 -1.02E-06
     6 OT DIIS     0.15E+00    0.2     0.00003013       -72.1481382701 -9.76E-07

  *** SCF run converged in     6 steps ***


  Electronic density on regular grids:        -31.9999999988        0.0000000012
  Core density on regular grids:               32.0000000000       -0.0000000000
  Total charge density on r-space grids:        0.0000000012
  Total charge density g-space grids:           0.0000000012

  Overlap energy of the core charge distribution:               0.00000001037937
  Self energy of the core charge distribution:               -186.73711017945703
  Core Hamiltonian energy:                                     53.07857122829482
  Hartree energy:                                              78.24929780469273
  Exchange-correlation energy:                                -16.73287169343295
  Dispersion energy:                                           -0.00602544058524

  Total energy:                                               -72.14813827010826

 ENERGY| Total FORCE_EVAL ( QS ) energy [hartree]            -72.148138282826849

 OPT| **************************************************************************
 OPT| Step number                                                             42
 OPT| Optimization method                                                   BFGS
 OPT| Total energy [hartree]                                      -72.1481382828
 OPT| Effective energy change [hartree]                            -0.0000367224
 OPT| Predicted energy change [hartree]                            -0.0000226084
 OPT| Scaling factor                                                0.5861630672
 OPT| Step size                                                     0.0435023432
 OPT| Trust radius                                                  0.4724315332
 OPT| Decrease in energy                                                     YES
 OPT| Used time [s]                                                        1.287
 OPT|
 OPT| Maximum step size                                             0.0435023432
 OPT| Convergence limit for maximum step size                       0.0030000000
 OPT| Maximum step size is converged                                          NO
 OPT|
 OPT| RMS step size                                                 0.0155589359
 OPT| Convergence limit for RMS step size                           0.0015000000
 OPT| RMS step size is converged                                              NO
 OPT|
 OPT| Maximum gradient                                              0.0016558182
 OPT| Convergence limit for maximum gradient                        0.0004500000
 OPT| Maximum gradient is converged                                           NO
 OPT|
 OPT| RMS gradient                                                  0.0006908097
 OPT| Convergence limit for RMS gradient                            0.0003000000
 OPT| RMS gradient is converged                                               NO
 OPT| **************************************************************************
 OPT| Estimated peak process memory after this step [MiB]                    216

 --------------------------
 OPTIMIZATION STEP:     43
 --------------------------

 Number of electrons:                                                         32
 Number of occupied orbitals:                                                 16
 Number of molecular orbitals:                                                16

 Number of orbital functions:                                                 23
 Number of independent orbital functions:                                     23

 Extrapolation method: ASPC


 SCF WAVEFUNCTION OPTIMIZATION

  ----------------------------------- OT ---------------------------------------
  Minimizer      : DIIS                : direct inversion
                                         in the iterative subspace
                                         using   7 DIIS vectors
                                         safer DIIS on
  Preconditioner : FULL_ALL            : diagonalization, state selective
  Precond_solver : DEFAULT
  stepsize       :    0.15000000                  energy_gap     :    0.08000000
  eps_taylor     :   0.10000E-15                  max_taylor     :             4
  ----------------------------------- OT ---------------------------------------

  Step     Update method      Time    Convergence         Total energy    Change
  ------------------------------------------------------------------------------
     1 OT DIIS     0.15E+00    0.1     0.00166403       -72.1480544593 -7.21E+01
     2 OT DIIS     0.15E+00    0.1     0.00069380       -72.1481494313 -9.50E-05
     3 OT DIIS     0.15E+00    0.1     0.00084664       -72.1481554934 -6.06E-06
     4 OT DIIS     0.15E+00    0.1     0.00017014       -72.1481634211 -7.93E-06
     5 OT DIIS     0.15E+00    0.1     0.00010439       -72.1481636620 -2.41E-07
     6 OT DIIS     0.15E+00    0.1     0.00002307       -72.1481637740 -1.12E-07

  *** SCF run converged in     6 steps ***


  Electronic density on regular grids:        -31.9999999988        0.0000000012
  Core density on regular grids:               32.0000000000       -0.0000000000
  Total charge density on r-space grids:        0.0000000012
  Total charge density g-space grids:           0.0000000012

  Overlap energy of the core charge distribution:               0.00000000947327
  Self energy of the core charge distribution:               -186.73711017945703
  Core Hamiltonian energy:                                     53.07280311892829
  Hartree energy:                                              78.25195042019135
  Exchange-correlation energy:                                -16.72978566754955
  Dispersion energy:                                           -0.00602147562696

  Total energy:                                               -72.14816377404063

 ENERGY| Total FORCE_EVAL ( QS ) energy [hartree]            -72.148163782067215

 OPT| **************************************************************************
 OPT| Step number                                                             43
 OPT| Optimization method                                                   BFGS
 OPT| Total energy [hartree]                                      -72.1481637821
 OPT| Effective energy change [hartree]                            -0.0000254992
 OPT| Predicted energy change [hartree]                            -0.0000436121
 OPT| Scaling factor                                                0.5861630672
 OPT| Step size                                                     0.1174553371
 OPT| Trust radius                                                  0.4724315332
 OPT| Decrease in energy                                                     YES
 OPT| Used time [s]                                                        1.158
 OPT|
 OPT| Maximum step size                                             0.1174553371
 OPT| Convergence limit for maximum step size                       0.0030000000
 OPT| Maximum step size is converged                                          NO
 OPT|
 OPT| RMS step size                                                 0.0429754453
 OPT| Convergence limit for RMS step size                           0.0015000000
 OPT| RMS step size is converged                                              NO
 OPT|
 OPT| Maximum gradient                                              0.0039898827
 OPT| Convergence limit for maximum gradient                        0.0004500000
 OPT| Maximum gradient is converged                                           NO
 OPT|
 OPT| RMS gradient                                                  0.0017203946
 OPT| Convergence limit for RMS gradient                            0.0003000000
 OPT| RMS gradient is converged                                               NO
 OPT| **************************************************************************
 OPT| Estimated peak process memory after this step [MiB]                    216

 --------------------------
 OPTIMIZATION STEP:     44
 --------------------------

 Number of electrons:                                                         32
 Number of occupied orbitals:                                                 16
 Number of molecular orbitals:                                                16

 Number of orbital functions:                                                 23
 Number of independent orbital functions:                                     23

 Extrapolation method: ASPC


 SCF WAVEFUNCTION OPTIMIZATION

  ----------------------------------- OT ---------------------------------------
  Minimizer      : DIIS                : direct inversion
                                         in the iterative subspace
                                         using   7 DIIS vectors
                                         safer DIIS on
  Preconditioner : FULL_ALL            : diagonalization, state selective
  Precond_solver : DEFAULT
  stepsize       :    0.15000000                  energy_gap     :    0.08000000
  eps_taylor     :   0.10000E-15                  max_taylor     :             4
  ----------------------------------- OT ---------------------------------------

  Step     Update method      Time    Convergence         Total energy    Change
  ------------------------------------------------------------------------------
     1 OT DIIS     0.15E+00    0.1     0.00976123       -72.1441551165 -7.21E+01
     2 OT DIIS     0.15E+00    0.2     0.00363618       -72.1476693420 -3.51E-03
     3 OT DIIS     0.15E+00    0.2     0.00393840       -72.1480411697 -3.72E-04
     4 OT DIIS     0.15E+00    0.2     0.00039594       -72.1481887181 -1.48E-04
     5 OT DIIS     0.15E+00    0.2     0.00028954       -72.1481905187 -1.80E-06
     6 OT DIIS     0.15E+00    0.2     0.00008811       -72.1481915297 -1.01E-06

  *** SCF run converged in     6 steps ***


  Electronic density on regular grids:        -31.9999999988        0.0000000012
  Core density on regular grids:               32.0000000000       -0.0000000000
  Total charge density on r-space grids:        0.0000000012
  Total charge density g-space grids:           0.0000000012

  Overlap energy of the core charge distribution:               0.00000001056580
  Self energy of the core charge distribution:               -186.73711017945703
  Core Hamiltonian energy:                                     53.07892611682621
  Hartree energy:                                              78.24861423704490
  Exchange-correlation energy:                                -16.73259974633145
  Dispersion energy:                                           -0.00602196835046

  Total energy:                                               -72.14819152970203

 ENERGY| Total FORCE_EVAL ( QS ) energy [hartree]            -72.148191641008466

 OPT| **************************************************************************
 OPT| Step number                                                             44
 OPT| Optimization method                                                   BFGS
 OPT| Total energy [hartree]                                      -72.1481916410
 OPT| Effective energy change [hartree]                            -0.0000278589
 OPT| Predicted energy change [hartree]                            -0.0000415264
 OPT| Scaling factor                                                0.5861630672
 OPT| Step size                                                     0.0430197606
 OPT| Trust radius                                                  0.4724315332
 OPT| Decrease in energy                                                     YES
 OPT| Used time [s]                                                        1.242
 OPT|
 OPT| Maximum step size                                             0.0430197606
 OPT| Convergence limit for maximum step size                       0.0030000000
 OPT| Maximum step size is converged                                          NO
 OPT|
 OPT| RMS step size                                                 0.0146568444
 OPT| Convergence limit for RMS step size                           0.0015000000
 OPT| RMS step size is converged                                              NO
 OPT|
 OPT| Maximum gradient                                              0.0012056432
 OPT| Convergence limit for maximum gradient                        0.0004500000
 OPT| Maximum gradient is converged                                           NO
 OPT|
 OPT| RMS gradient                                                  0.0004493115
 OPT| Convergence limit for RMS gradient                            0.0003000000
 OPT| RMS gradient is converged                                               NO
 OPT| **************************************************************************
 OPT| Estimated peak process memory after this step [MiB]                    216

 --------------------------
 OPTIMIZATION STEP:     45
 --------------------------

 Number of electrons:                                                         32
 Number of occupied orbitals:                                                 16
 Number of molecular orbitals:                                                16

 Number of orbital functions:                                                 23
 Number of independent orbital functions:                                     23

 Extrapolation method: ASPC


 SCF WAVEFUNCTION OPTIMIZATION

  ----------------------------------- OT ---------------------------------------
  Minimizer      : DIIS                : direct inversion
                                         in the iterative subspace
                                         using   7 DIIS vectors
                                         safer DIIS on
  Preconditioner : FULL_ALL            : diagonalization, state selective
  Precond_solver : DEFAULT
  stepsize       :    0.15000000                  energy_gap     :    0.08000000
  eps_taylor     :   0.10000E-15                  max_taylor     :             4
  ----------------------------------- OT ---------------------------------------

  Step     Update method      Time    Convergence         Total energy    Change
  ------------------------------------------------------------------------------
     1 OT DIIS     0.15E+00    0.1     0.01220513       -72.1419048879 -7.21E+01
     2 OT DIIS     0.15E+00    0.2     0.00430599       -72.1474205144 -5.52E-03
     3 OT DIIS     0.15E+00    0.2     0.00218134       -72.1481593743 -7.39E-04
     4 OT DIIS     0.15E+00    0.2     0.00055940       -72.1482041912 -4.48E-05
     5 OT DIIS     0.15E+00    0.2     0.00033324       -72.1482074245 -3.23E-06
     6 OT DIIS     0.15E+00    0.2     0.00004855       -72.1482087637 -1.34E-06

  *** SCF run converged in     6 steps ***


  Electronic density on regular grids:        -31.9999999988        0.0000000012
  Core density on regular grids:               32.0000000000       -0.0000000000
  Total charge density on r-space grids:        0.0000000012
  Total charge density g-space grids:           0.0000000012

  Overlap energy of the core charge distribution:               0.00000001035767
  Self energy of the core charge distribution:               -186.73711017945703
  Core Hamiltonian energy:                                     53.07833740661296
  Hartree energy:                                              78.24885452138008
  Exchange-correlation energy:                                -16.73226866747558
  Dispersion energy:                                           -0.00602185508960

  Total energy:                                               -72.14820876367152

 ENERGY| Total FORCE_EVAL ( QS ) energy [hartree]            -72.148208798075714

 OPT| **************************************************************************
 OPT| Step number                                                             45
 OPT| Optimization method                                                   BFGS
 OPT| Total energy [hartree]                                      -72.1482087981
 OPT| Effective energy change [hartree]                            -0.0000171571
 OPT| Predicted energy change [hartree]                            -0.0000102636
 OPT| Scaling factor                                                0.5861630672
 OPT| Step size                                                     0.0248140248
 OPT| Trust radius                                                  0.4724315332
 OPT| Decrease in energy                                                     YES
 OPT| Used time [s]                                                        1.332
 OPT|
 OPT| Maximum step size                                             0.0248140248
 OPT| Convergence limit for maximum step size                       0.0030000000
 OPT| Maximum step size is converged                                          NO
 OPT|
 OPT| RMS step size                                                 0.0092258558
 OPT| Convergence limit for RMS step size                           0.0015000000
 OPT| RMS step size is converged                                              NO
 OPT|
 OPT| Maximum gradient                                              0.0009123225
 OPT| Convergence limit for maximum gradient                        0.0004500000
 OPT| Maximum gradient is converged                                           NO
 OPT|
 OPT| RMS gradient                                                  0.0003146835
 OPT| Convergence limit for RMS gradient                            0.0003000000
 OPT| RMS gradient is converged                                               NO
 OPT| **************************************************************************
 OPT| Estimated peak process memory after this step [MiB]                    216

 --------------------------
 OPTIMIZATION STEP:     46
 --------------------------

 Number of electrons:                                                         32
 Number of occupied orbitals:                                                 16
 Number of molecular orbitals:                                                16

 Number of orbital functions:                                                 23
 Number of independent orbital functions:                                     23

 Extrapolation method: ASPC


 SCF WAVEFUNCTION OPTIMIZATION

  ----------------------------------- OT ---------------------------------------
  Minimizer      : DIIS                : direct inversion
                                         in the iterative subspace
                                         using   7 DIIS vectors
                                         safer DIIS on
  Preconditioner : FULL_ALL            : diagonalization, state selective
  Precond_solver : DEFAULT
  stepsize       :    0.15000000                  energy_gap     :    0.08000000
  eps_taylor     :   0.10000E-15                  max_taylor     :             4
  ----------------------------------- OT ---------------------------------------

  Step     Update method      Time    Convergence         Total energy    Change
  ------------------------------------------------------------------------------
     1 OT DIIS     0.15E+00    0.1     0.00361093       -72.1476774164 -7.21E+01
     2 OT DIIS     0.15E+00    0.1     0.00150850       -72.1481426463 -4.65E-04
     3 OT DIIS     0.15E+00    0.2     0.00193288       -72.1481765959 -3.39E-05
     4 OT DIIS     0.15E+00    0.2     0.00034986       -72.1482158807 -3.93E-05
     5 OT DIIS     0.15E+00    0.2     0.00015092       -72.1482170340 -1.15E-06
     6 OT DIIS     0.15E+00    0.2     0.00004104       -72.1482172915 -2.57E-07

  *** SCF run converged in     6 steps ***


  Electronic density on regular grids:        -31.9999999988        0.0000000012
  Core density on regular grids:               32.0000000000       -0.0000000000
  Total charge density on r-space grids:        0.0000000012
  Total charge density g-space grids:           0.0000000012

  Overlap energy of the core charge distribution:               0.00000000957735
  Self energy of the core charge distribution:               -186.73711017945703
  Core Hamiltonian energy:                                     53.08032344974787
  Hartree energy:                                              78.24643981423412
  Exchange-correlation energy:                                -16.73184991822701
  Dispersion energy:                                           -0.00602046736913

  Total energy:                                               -72.14821729149385

 ENERGY| Total FORCE_EVAL ( QS ) energy [hartree]            -72.148217320065541

 OPT| **************************************************************************
 OPT| Step number                                                             46
 OPT| Optimization method                                                   BFGS
 OPT| Total energy [hartree]                                      -72.1482173201
 OPT| Effective energy change [hartree]                            -0.0000085220
 OPT| Predicted energy change [hartree]                            -0.0000253562
 OPT| Scaling factor                                                0.5861630672
 OPT| Step size                                                     0.0899699537
 OPT| Trust radius                                                  0.4724315332
 OPT| Decrease in energy                                                     YES
 OPT| Used time [s]                                                        1.204
 OPT|
 OPT| Maximum step size                                             0.0899699537
 OPT| Convergence limit for maximum step size                       0.0030000000
 OPT| Maximum step size is converged                                          NO
 OPT|
 OPT| RMS step size                                                 0.0327357907
 OPT| Convergence limit for RMS step size                           0.0015000000
 OPT| RMS step size is converged                                              NO
 OPT|
 OPT| Maximum gradient                                              0.0035736965
 OPT| Convergence limit for maximum gradient                        0.0004500000
 OPT| Maximum gradient is converged                                           NO
 OPT|
 OPT| RMS gradient                                                  0.0016543099
 OPT| Convergence limit for RMS gradient                            0.0003000000
 OPT| RMS gradient is converged                                               NO
 OPT| **************************************************************************
 OPT| Estimated peak process memory after this step [MiB]                    216

 --------------------------
 OPTIMIZATION STEP:     47
 --------------------------

 Number of electrons:                                                         32
 Number of occupied orbitals:                                                 16
 Number of molecular orbitals:                                                16

 Number of orbital functions:                                                 23
 Number of independent orbital functions:                                     23

 Extrapolation method: ASPC


 SCF WAVEFUNCTION OPTIMIZATION

  ----------------------------------- OT ---------------------------------------
  Minimizer      : DIIS                : direct inversion
                                         in the iterative subspace
                                         using   7 DIIS vectors
                                         safer DIIS on
  Preconditioner : FULL_ALL            : diagonalization, state selective
  Precond_solver : DEFAULT
  stepsize       :    0.15000000                  energy_gap     :    0.08000000
  eps_taylor     :   0.10000E-15                  max_taylor     :             4
  ----------------------------------- OT ---------------------------------------

  Step     Update method      Time    Convergence         Total energy    Change
  ------------------------------------------------------------------------------
     1 OT DIIS     0.15E+00    0.1     0.00769919       -72.1457217372 -7.21E+01
     2 OT DIIS     0.15E+00    0.2     0.00285208       -72.1479117722 -2.19E-03
     3 OT DIIS     0.15E+00    0.1     0.00292563       -72.1481531608 -2.41E-04
     4 OT DIIS     0.15E+00    0.2     0.00030477       -72.1482351670 -8.20E-05
     5 OT DIIS     0.15E+00    0.2     0.00027017       -72.1482359234 -7.56E-07
     6 OT DIIS     0.15E+00    0.2     0.00003221       -72.1482368065 -8.83E-07

  *** SCF run converged in     6 steps ***


  Electronic density on regular grids:        -31.9999999988        0.0000000012
  Core density on regular grids:               32.0000000000       -0.0000000000
  Total charge density on r-space grids:        0.0000000012
  Total charge density g-space grids:           0.0000000012

  Overlap energy of the core charge distribution:               0.00000001030207
  Self energy of the core charge distribution:               -186.73711017945703
  Core Hamiltonian energy:                                     53.08308634930921
  Hartree energy:                                              78.24526184271937
  Exchange-correlation energy:                                -16.73345286052513
  Dispersion energy:                                           -0.00602196884957

  Total energy:                                               -72.14823680650107

 ENERGY| Total FORCE_EVAL ( QS ) energy [hartree]            -72.148236824434704

 OPT| **************************************************************************
 OPT| Step number                                                             47
 OPT| Optimization method                                                   BFGS
 OPT| Total energy [hartree]                                      -72.1482368244
 OPT| Effective energy change [hartree]                            -0.0000195044
 OPT| Predicted energy change [hartree]                            -0.0000234301
 OPT| Scaling factor                                                0.5861630672
 OPT| Step size                                                     0.0400644323
 OPT| Trust radius                                                  0.4724315332
 OPT| Decrease in energy                                                     YES
 OPT| Used time [s]                                                        1.186
 OPT|
 OPT| Maximum step size                                             0.0400644323
 OPT| Convergence limit for maximum step size                       0.0030000000
 OPT| Maximum step size is converged                                          NO
 OPT|
 OPT| RMS step size                                                 0.0146655651
 OPT| Convergence limit for RMS step size                           0.0015000000
 OPT| RMS step size is converged                                              NO
 OPT|
 OPT| Maximum gradient                                              0.0011607621
 OPT| Convergence limit for maximum gradient                        0.0004500000
 OPT| Maximum gradient is converged                                           NO
 OPT|
 OPT| RMS gradient                                                  0.0004896577
 OPT| Convergence limit for RMS gradient                            0.0003000000
 OPT| RMS gradient is converged                                               NO
 OPT| **************************************************************************
 OPT| Estimated peak process memory after this step [MiB]                    216

 --------------------------
 OPTIMIZATION STEP:     48
 --------------------------

 Number of electrons:                                                         32
 Number of occupied orbitals:                                                 16
 Number of molecular orbitals:                                                16

 Number of orbital functions:                                                 23
 Number of independent orbital functions:                                     23

 Extrapolation method: ASPC


 SCF WAVEFUNCTION OPTIMIZATION

  ----------------------------------- OT ---------------------------------------
  Minimizer      : DIIS                : direct inversion
                                         in the iterative subspace
                                         using   7 DIIS vectors
                                         safer DIIS on
  Preconditioner : FULL_ALL            : diagonalization, state selective
  Precond_solver : DEFAULT
  stepsize       :    0.15000000                  energy_gap     :    0.08000000
  eps_taylor     :   0.10000E-15                  max_taylor     :             4
  ----------------------------------- OT ---------------------------------------

  Step     Update method      Time    Convergence         Total energy    Change
  ------------------------------------------------------------------------------
     1 OT DIIS     0.15E+00    0.1     0.01032419       -72.1437247710 -7.21E+01
     2 OT DIIS     0.15E+00    0.1     0.00367227       -72.1476746473 -3.95E-03
     3 OT DIIS     0.15E+00    0.2     0.00223600       -72.1481947677 -5.20E-04
     4 OT DIIS     0.15E+00    0.2     0.00040976       -72.1482417405 -4.70E-05
     5 OT DIIS     0.15E+00    0.2     0.00030345       -72.1482434468 -1.71E-06
     6 OT DIIS     0.15E+00    0.2     0.00003071       -72.1482445162 -1.07E-06

  *** SCF run converged in     6 steps ***


  Electronic density on regular grids:        -31.9999999988        0.0000000012
  Core density on regular grids:               32.0000000000       -0.0000000000
  Total charge density on r-space grids:        0.0000000012
  Total charge density g-space grids:           0.0000000012

  Overlap energy of the core charge distribution:               0.00000001034276
  Self energy of the core charge distribution:               -186.73711017945703
  Core Hamiltonian energy:                                     53.08272107791862
  Hartree energy:                                              78.24553496045900
  Exchange-correlation energy:                                -16.73336864061912
  Dispersion energy:                                           -0.00602174488103

  Total energy:                                               -72.14824451623679

 ENERGY| Total FORCE_EVAL ( QS ) energy [hartree]            -72.148244527417958

 OPT| **************************************************************************
 OPT| Step number                                                             48
 OPT| Optimization method                                                   BFGS
 OPT| Total energy [hartree]                                      -72.1482445274
 OPT| Effective energy change [hartree]                            -0.0000077030
 OPT| Predicted energy change [hartree]                            -0.0000043237
 OPT| Scaling factor                                                0.5861630672
 OPT| Step size                                                     0.0182250520
 OPT| Trust radius                                                  0.4724315332
 OPT| Decrease in energy                                                     YES
 OPT| Used time [s]                                                        1.155
 OPT|
 OPT| Maximum step size                                             0.0182250520
 OPT| Convergence limit for maximum step size                       0.0030000000
 OPT| Maximum step size is converged                                          NO
 OPT|
 OPT| RMS step size                                                 0.0062713286
 OPT| Convergence limit for RMS step size                           0.0015000000
 OPT| RMS step size is converged                                              NO
 OPT|
 OPT| Maximum gradient                                              0.0010029120
 OPT| Convergence limit for maximum gradient                        0.0004500000
 OPT| Maximum gradient is converged                                           NO
 OPT|
 OPT| RMS gradient                                                  0.0004519182
 OPT| Convergence limit for RMS gradient                            0.0003000000
 OPT| RMS gradient is converged                                               NO
 OPT| **************************************************************************
 OPT| Estimated peak process memory after this step [MiB]                    216

 --------------------------
 OPTIMIZATION STEP:     49
 --------------------------

 Number of electrons:                                                         32
 Number of occupied orbitals:                                                 16
 Number of molecular orbitals:                                                16

 Number of orbital functions:                                                 23
 Number of independent orbital functions:                                     23

 Extrapolation method: ASPC


 SCF WAVEFUNCTION OPTIMIZATION

  ----------------------------------- OT ---------------------------------------
  Minimizer      : DIIS                : direct inversion
                                         in the iterative subspace
                                         using   7 DIIS vectors
                                         safer DIIS on
  Preconditioner : FULL_ALL            : diagonalization, state selective
  Precond_solver : DEFAULT
  stepsize       :    0.15000000                  energy_gap     :    0.08000000
  eps_taylor     :   0.10000E-15                  max_taylor     :             4
  ----------------------------------- OT ---------------------------------------

  Step     Update method      Time    Convergence         Total energy    Change
  ------------------------------------------------------------------------------
     1 OT DIIS     0.15E+00    0.1     0.00320788       -72.1478314531 -7.21E+01
     2 OT DIIS     0.15E+00    0.2     0.00136535       -72.1481998501 -3.68E-04
     3 OT DIIS     0.15E+00    0.1     0.00173465       -72.1482270766 -2.72E-05
     4 OT DIIS     0.15E+00    0.1     0.00029984       -72.1482595181 -3.24E-05
     5 OT DIIS     0.15E+00    0.2     0.00011301       -72.1482603487 -8.31E-07
     6 OT DIIS     0.15E+00    0.2     0.00003194       -72.1482605040 -1.55E-07

  *** SCF run converged in     6 steps ***


  Electronic density on regular grids:        -31.9999999988        0.0000000012
  Core density on regular grids:               32.0000000000       -0.0000000000
  Total charge density on r-space grids:        0.0000000011
  Total charge density g-space grids:           0.0000000011

  Overlap energy of the core charge distribution:               0.00000001017986
  Self energy of the core charge distribution:               -186.73711017945703
  Core Hamiltonian energy:                                     53.08266042742758
  Hartree energy:                                              78.24521727232255
  Exchange-correlation energy:                                -16.73300734098525
  Dispersion energy:                                           -0.00602069348468

  Total energy:                                               -72.14826050399698

 ENERGY| Total FORCE_EVAL ( QS ) energy [hartree]            -72.148260519671595

 OPT| **************************************************************************
 OPT| Step number                                                             49
 OPT| Optimization method                                                   BFGS
 OPT| Total energy [hartree]                                      -72.1482605197
 OPT| Effective energy change [hartree]                            -0.0000159923
 OPT| Predicted energy change [hartree]                            -0.0000147794
 OPT| Scaling factor                                                0.5861630672
 OPT| Step size                                                     0.0726289270
 OPT| Trust radius                                                  0.4724315332
 OPT| Decrease in energy                                                     YES
 OPT| Used time [s]                                                        1.182
 OPT|
 OPT| Maximum step size                                             0.0726289270
 OPT| Convergence limit for maximum step size                       0.0030000000
 OPT| Maximum step size is converged                                          NO
 OPT|
 OPT| RMS step size                                                 0.0255608035
 OPT| Convergence limit for RMS step size                           0.0015000000
 OPT| RMS step size is converged                                              NO
 OPT|
 OPT| Maximum gradient                                              0.0014525427
 OPT| Convergence limit for maximum gradient                        0.0004500000
 OPT| Maximum gradient is converged                                           NO
 OPT|
 OPT| RMS gradient                                                  0.0007329278
 OPT| Convergence limit for RMS gradient                            0.0003000000
 OPT| RMS gradient is converged                                               NO
 OPT| **************************************************************************
 OPT| Estimated peak process memory after this step [MiB]                    216

 --------------------------
 OPTIMIZATION STEP:     50
 --------------------------

 Number of electrons:                                                         32
 Number of occupied orbitals:                                                 16
 Number of molecular orbitals:                                                16

 Number of orbital functions:                                                 23
 Number of independent orbital functions:                                     23

 Extrapolation method: ASPC


 SCF WAVEFUNCTION OPTIMIZATION

  ----------------------------------- OT ---------------------------------------
  Minimizer      : DIIS                : direct inversion
                                         in the iterative subspace
                                         using   7 DIIS vectors
                                         safer DIIS on
  Preconditioner : FULL_ALL            : diagonalization, state selective
  Precond_solver : DEFAULT
  stepsize       :    0.15000000                  energy_gap     :    0.08000000
  eps_taylor     :   0.10000E-15                  max_taylor     :             4
  ----------------------------------- OT ---------------------------------------

  Step     Update method      Time    Convergence         Total energy    Change
  ------------------------------------------------------------------------------
     1 OT DIIS     0.15E+00    0.1     0.00415033       -72.1475393647 -7.21E+01
     2 OT DIIS     0.15E+00    0.1     0.00160092       -72.1481718388 -6.32E-04
     3 OT DIIS     0.15E+00    0.1     0.00218360       -72.1482226349 -5.08E-05
     4 OT DIIS     0.15E+00    0.2     0.00010438       -72.1482668530 -4.42E-05
     5 OT DIIS     0.15E+00    0.2     0.00006647       -72.1482671309 -2.78E-07

  *** SCF run converged in     5 steps ***


  Electronic density on regular grids:        -31.9999999988        0.0000000012
  Core density on regular grids:               32.0000000000       -0.0000000000
  Total charge density on r-space grids:        0.0000000011
  Total charge density g-space grids:           0.0000000011

  Overlap energy of the core charge distribution:               0.00000001044807
  Self energy of the core charge distribution:               -186.73711017945703
  Core Hamiltonian energy:                                     53.08277781159778
  Hartree energy:                                              78.24533734713107
  Exchange-correlation energy:                                -16.73325143226937
  Dispersion energy:                                           -0.00602068837550

  Total energy:                                               -72.14826713092499

 ENERGY| Total FORCE_EVAL ( QS ) energy [hartree]            -72.148267192735560

 OPT| **************************************************************************
 OPT| Step number                                                             50
 OPT| Optimization method                                                   BFGS
 OPT| Total energy [hartree]                                      -72.1482671927
 OPT| Effective energy change [hartree]                            -0.0000066731
 OPT| Predicted energy change [hartree]                            -0.0000047587
 OPT| Scaling factor                                                0.5861630672
 OPT| Step size                                                     0.0089167912
 OPT| Trust radius                                                  0.4724315332
 OPT| Decrease in energy                                                     YES
 OPT| Used time [s]                                                        0.993
 OPT|
 OPT| Maximum step size                                             0.0089167912
 OPT| Convergence limit for maximum step size                       0.0030000000
 OPT| Maximum step size is converged                                          NO
 OPT|
 OPT| RMS step size                                                 0.0023656908
 OPT| Convergence limit for RMS step size                           0.0015000000
 OPT| RMS step size is converged                                              NO
 OPT|
 OPT| Maximum gradient                                              0.0007615031
 OPT| Convergence limit for maximum gradient                        0.0004500000
 OPT| Maximum gradient is converged                                           NO
 OPT|
 OPT| RMS gradient                                                  0.0003536803
 OPT| Convergence limit for RMS gradient                            0.0003000000
 OPT| RMS gradient is converged                                               NO
 OPT| **************************************************************************
 OPT| Estimated peak process memory after this step [MiB]                    216

 --------------------------
 OPTIMIZATION STEP:     51
 --------------------------

 Number of electrons:                                                         32
 Number of occupied orbitals:                                                 16
 Number of molecular orbitals:                                                16

 Number of orbital functions:                                                 23
 Number of independent orbital functions:                                     23

 Extrapolation method: ASPC


 SCF WAVEFUNCTION OPTIMIZATION

  ----------------------------------- OT ---------------------------------------
  Minimizer      : DIIS                : direct inversion
                                         in the iterative subspace
                                         using   7 DIIS vectors
                                         safer DIIS on
  Preconditioner : FULL_ALL            : diagonalization, state selective
  Precond_solver : DEFAULT
  stepsize       :    0.15000000                  energy_gap     :    0.08000000
  eps_taylor     :   0.10000E-15                  max_taylor     :             4
  ----------------------------------- OT ---------------------------------------

  Step     Update method      Time    Convergence         Total energy    Change
  ------------------------------------------------------------------------------
     1 OT DIIS     0.15E+00    0.1     0.00533404       -72.1470688415 -7.21E+01
     2 OT DIIS     0.15E+00    0.1     0.00198224       -72.1481183655 -1.05E-03
     3 OT DIIS     0.15E+00    0.2     0.00227007       -72.1482254492 -1.07E-04
     4 OT DIIS     0.15E+00    0.2     0.00015100       -72.1482726248 -4.72E-05
     5 OT DIIS     0.15E+00    0.2     0.00008737       -72.1482731115 -4.87E-07

  *** SCF run converged in     5 steps ***


  Electronic density on regular grids:        -31.9999999988        0.0000000012
  Core density on regular grids:               32.0000000000       -0.0000000000
  Total charge density on r-space grids:        0.0000000011
  Total charge density g-space grids:           0.0000000011

  Overlap energy of the core charge distribution:               0.00000001051022
  Self energy of the core charge distribution:               -186.73711017945703
  Core Hamiltonian energy:                                     53.08090261236026
  Hartree energy:                                              78.24669754995969
  Exchange-correlation energy:                                -16.73274319881465
  Dispersion energy:                                           -0.00601990603478

  Total energy:                                               -72.14827311147630

 ENERGY| Total FORCE_EVAL ( QS ) energy [hartree]            -72.148273207975123

 OPT| **************************************************************************
 OPT| Step number                                                             51
 OPT| Optimization method                                                   BFGS
 OPT| Total energy [hartree]                                      -72.1482732080
 OPT| Effective energy change [hartree]                            -0.0000060152
 OPT| Predicted energy change [hartree]                            -0.0000043684
 OPT| Scaling factor                                                0.5861630672
 OPT| Step size                                                     0.0352127026
 OPT| Trust radius                                                  0.4724315332
 OPT| Decrease in energy                                                     YES
 OPT| Used time [s]                                                        1.043
 OPT|
 OPT| Maximum step size                                             0.0352127026
 OPT| Convergence limit for maximum step size                       0.0030000000
 OPT| Maximum step size is converged                                          NO
 OPT|
 OPT| RMS step size                                                 0.0112919120
 OPT| Convergence limit for RMS step size                           0.0015000000
 OPT| RMS step size is converged                                              NO
 OPT|
 OPT| Maximum gradient                                              0.0005657679
 OPT| Convergence limit for maximum gradient                        0.0004500000
 OPT| Maximum gradient is converged                                           NO
 OPT|
 OPT| RMS gradient                                                  0.0002554006
 OPT| Convergence limit for RMS gradient                            0.0003000000
 OPT| RMS gradient is converged                                              YES
 OPT| **************************************************************************
 OPT| Estimated peak process memory after this step [MiB]                    216

 --------------------------
 OPTIMIZATION STEP:     52
 --------------------------

 Number of electrons:                                                         32
 Number of occupied orbitals:                                                 16
 Number of molecular orbitals:                                                16

 Number of orbital functions:                                                 23
 Number of independent orbital functions:                                     23

 Extrapolation method: ASPC


 SCF WAVEFUNCTION OPTIMIZATION

  ----------------------------------- OT ---------------------------------------
  Minimizer      : DIIS                : direct inversion
                                         in the iterative subspace
                                         using   7 DIIS vectors
                                         safer DIIS on
  Preconditioner : FULL_ALL            : diagonalization, state selective
  Precond_solver : DEFAULT
  stepsize       :    0.15000000                  energy_gap     :    0.08000000
  eps_taylor     :   0.10000E-15                  max_taylor     :             4
  ----------------------------------- OT ---------------------------------------

  Step     Update method      Time    Convergence         Total energy    Change
  ------------------------------------------------------------------------------
     1 OT DIIS     0.15E+00    0.1     0.00332200       -72.1478113620 -7.21E+01
     2 OT DIIS     0.15E+00    0.2     0.00126369       -72.1482161054 -4.05E-04
     3 OT DIIS     0.15E+00    0.1     0.00159785       -72.1482525793 -3.65E-05
     4 OT DIIS     0.15E+00    0.1     0.00014511       -72.1482762961 -2.37E-05
     5 OT DIIS     0.15E+00    0.1     0.00006264       -72.1482766237 -3.28E-07

  *** SCF run converged in     5 steps ***


  Electronic density on regular grids:        -31.9999999988        0.0000000012
  Core density on regular grids:               32.0000000000       -0.0000000000
  Total charge density on r-space grids:        0.0000000011
  Total charge density g-space grids:           0.0000000011

  Overlap energy of the core charge distribution:               0.00000001052749
  Self energy of the core charge distribution:               -186.73711017945703
  Core Hamiltonian energy:                                     53.08245694655903
  Hartree energy:                                              78.24545065229205
  Exchange-correlation energy:                                -16.73305497532726
  Dispersion energy:                                           -0.00601907831200

  Total energy:                                               -72.14827662371773

 ENERGY| Total FORCE_EVAL ( QS ) energy [hartree]            -72.148276683528451

 OPT| **************************************************************************
 OPT| Step number                                                             52
 OPT| Optimization method                                                   BFGS
 OPT| Total energy [hartree]                                      -72.1482766835
 OPT| Effective energy change [hartree]                            -0.0000034756
 OPT| Predicted energy change [hartree]                            -0.0000025806
 OPT| Scaling factor                                                0.5861630672
 OPT| Step size                                                     0.0226289751
 OPT| Trust radius                                                  0.4724315332
 OPT| Decrease in energy                                                     YES
 OPT| Used time [s]                                                        1.024
 OPT|
 OPT| Maximum step size                                             0.0226289751
 OPT| Convergence limit for maximum step size                       0.0030000000
 OPT| Maximum step size is converged                                          NO
 OPT|
 OPT| RMS step size                                                 0.0072248852
 OPT| Convergence limit for RMS step size                           0.0015000000
 OPT| RMS step size is converged                                              NO
 OPT|
 OPT| Maximum gradient                                              0.0003822465
 OPT| Convergence limit for maximum gradient                        0.0004500000
 OPT| Maximum gradient is converged                                          YES
 OPT|
 OPT| RMS gradient                                                  0.0001737784
 OPT| Convergence limit for RMS gradient                            0.0003000000
 OPT| RMS gradient is converged                                              YES
 OPT| **************************************************************************
 OPT| Estimated peak process memory after this step [MiB]                    216

 --------------------------
 OPTIMIZATION STEP:     53
 --------------------------

 Number of electrons:                                                         32
 Number of occupied orbitals:                                                 16
 Number of molecular orbitals:                                                16

 Number of orbital functions:                                                 23
 Number of independent orbital functions:                                     23

 Extrapolation method: ASPC


 SCF WAVEFUNCTION OPTIMIZATION

  ----------------------------------- OT ---------------------------------------
  Minimizer      : DIIS                : direct inversion
                                         in the iterative subspace
                                         using   7 DIIS vectors
                                         safer DIIS on
  Preconditioner : FULL_ALL            : diagonalization, state selective
  Precond_solver : DEFAULT
  stepsize       :    0.15000000                  energy_gap     :    0.08000000
  eps_taylor     :   0.10000E-15                  max_taylor     :             4
  ----------------------------------- OT ---------------------------------------

  Step     Update method      Time    Convergence         Total energy    Change
  ------------------------------------------------------------------------------
     1 OT DIIS     0.15E+00    0.1     0.00090512       -72.1482444432 -7.21E+01
     2 OT DIIS     0.15E+00    0.1     0.00038411       -72.1482732187 -2.88E-05
     3 OT DIIS     0.15E+00    0.1     0.00047083       -72.1482754417 -2.22E-06
     4 OT DIIS     0.15E+00    0.1     0.00012164       -72.1482777313 -2.29E-06
     5 OT DIIS     0.15E+00    0.1     0.00003882       -72.1482778811 -1.50E-07

  *** SCF run converged in     5 steps ***


  Electronic density on regular grids:        -31.9999999988        0.0000000012
  Core density on regular grids:               32.0000000000       -0.0000000000
  Total charge density on r-space grids:        0.0000000012
  Total charge density g-space grids:           0.0000000012

  Overlap energy of the core charge distribution:               0.00000001050917
  Self energy of the core charge distribution:               -186.73711017945703
  Core Hamiltonian energy:                                     53.08200565729863
  Hartree energy:                                              78.24572947081523
  Exchange-correlation energy:                                -16.73288449260924
  Dispersion energy:                                           -0.00601834765849

  Total energy:                                               -72.14827788110176

 ENERGY| Total FORCE_EVAL ( QS ) energy [hartree]            -72.148277898064521

 OPT| **************************************************************************
 OPT| Step number                                                             53
 OPT| Optimization method                                                   BFGS
 OPT| Total energy [hartree]                                      -72.1482778981
 OPT| Effective energy change [hartree]                            -0.0000012145
 OPT| Predicted energy change [hartree]                            -0.0000010372
 OPT| Scaling factor                                                0.5861630672
 OPT| Step size                                                     0.0142261526
 OPT| Trust radius                                                  0.4724315332
 OPT| Decrease in energy                                                     YES
 OPT| Used time [s]                                                        0.953
 OPT|
 OPT| Maximum step size                                             0.0142261526
 OPT| Convergence limit for maximum step size                       0.0030000000
 OPT| Maximum step size is converged                                          NO
 OPT|
 OPT| RMS step size                                                 0.0043082871
 OPT| Convergence limit for RMS step size                           0.0015000000
 OPT| RMS step size is converged                                              NO
 OPT|
 OPT| Maximum gradient                                              0.0003887822
 OPT| Convergence limit for maximum gradient                        0.0004500000
 OPT| Maximum gradient is converged                                          YES
 OPT|
 OPT| RMS gradient                                                  0.0001394133
 OPT| Convergence limit for RMS gradient                            0.0003000000
 OPT| RMS gradient is converged                                              YES
 OPT| **************************************************************************
 OPT| Estimated peak process memory after this step [MiB]                    216

 --------------------------
 OPTIMIZATION STEP:     54
 --------------------------

 Number of electrons:                                                         32
 Number of occupied orbitals:                                                 16
 Number of molecular orbitals:                                                16

 Number of orbital functions:                                                 23
 Number of independent orbital functions:                                     23

 Extrapolation method: ASPC


 SCF WAVEFUNCTION OPTIMIZATION

  ----------------------------------- OT ---------------------------------------
  Minimizer      : DIIS                : direct inversion
                                         in the iterative subspace
                                         using   7 DIIS vectors
                                         safer DIIS on
  Preconditioner : FULL_ALL            : diagonalization, state selective
  Precond_solver : DEFAULT
  stepsize       :    0.15000000                  energy_gap     :    0.08000000
  eps_taylor     :   0.10000E-15                  max_taylor     :             4
  ----------------------------------- OT ---------------------------------------

  Step     Update method      Time    Convergence         Total energy    Change
  ------------------------------------------------------------------------------
     1 OT DIIS     0.15E+00    0.1     0.00062070       -72.1482630097 -7.21E+01
     2 OT DIIS     0.15E+00    0.1     0.00029423       -72.1482757925 -1.28E-05
     3 OT DIIS     0.15E+00    0.2     0.00026492       -72.1482771216 -1.33E-06
     4 OT DIIS     0.15E+00    0.1     0.00004694       -72.1482781154 -9.94E-07

  *** SCF run converged in     4 steps ***


  Electronic density on regular grids:        -31.9999999988        0.0000000012
  Core density on regular grids:               32.0000000000       -0.0000000000
  Total charge density on r-space grids:        0.0000000012
  Total charge density g-space grids:           0.0000000012

  Overlap energy of the core charge distribution:               0.00000001054794
  Self energy of the core charge distribution:               -186.73711017945703
  Core Hamiltonian energy:                                     53.08219574629113
  Hartree energy:                                              78.24565187602118
  Exchange-correlation energy:                                -16.73299727351683
  Dispersion energy:                                           -0.00601829533253

  Total energy:                                               -72.14827811544613

 ENERGY| Total FORCE_EVAL ( QS ) energy [hartree]            -72.148278145241235

 OPT| **************************************************************************
 OPT| Step number                                                             54
 OPT| Optimization method                                                   BFGS
 OPT| Total energy [hartree]                                      -72.1482781452
 OPT| Effective energy change [hartree]                            -0.0000002472
 OPT| Predicted energy change [hartree]                            -0.0000002417
 OPT| Scaling factor                                                0.5861630672
 OPT| Step size                                                     0.0025865508
 OPT| Trust radius                                                  0.4724315332
 OPT| Decrease in energy                                                     YES
 OPT| Used time [s]                                                        0.860
 OPT|
 OPT| Maximum step size                                             0.0025865508
 OPT| Convergence limit for maximum step size                       0.0030000000
 OPT| Maximum step size is converged                                         YES
 OPT|
 OPT| RMS step size                                                 0.0010416586
 OPT| Convergence limit for RMS step size                           0.0015000000
 OPT| RMS step size is converged                                             YES
 OPT|
 OPT| Maximum gradient                                              0.0003571187
 OPT| Convergence limit for maximum gradient                        0.0004500000
 OPT| Maximum gradient is converged                                          YES
 OPT|
 OPT| RMS gradient                                                  0.0001417566
 OPT| Convergence limit for RMS gradient                            0.0003000000
 OPT| RMS gradient is converged                                              YES
 OPT| **************************************************************************
 OPT| Estimated peak process memory after this step [MiB]                    216

 *******************************************************************************
 ***                    GEOMETRY OPTIMIZATION COMPLETED                      ***
 *******************************************************************************

                    Reevaluating energy at the minimum

 Number of electrons:                                                         32
 Number of occupied orbitals:                                                 16
 Number of molecular orbitals:                                                16

 Number of orbital functions:                                                 23
 Number of independent orbital functions:                                     23

 Extrapolation method: ASPC


 SCF WAVEFUNCTION OPTIMIZATION

  ----------------------------------- OT ---------------------------------------
  Minimizer      : DIIS                : direct inversion
                                         in the iterative subspace
                                         using   7 DIIS vectors
                                         safer DIIS on
  Preconditioner : FULL_ALL            : diagonalization, state selective
  Precond_solver : DEFAULT
  stepsize       :    0.15000000                  energy_gap     :    0.08000000
  eps_taylor     :   0.10000E-15                  max_taylor     :             4
  ----------------------------------- OT ---------------------------------------

  Step     Update method      Time    Convergence         Total energy    Change
  ------------------------------------------------------------------------------
     1 OT DIIS     0.15E+00    0.1     0.00065962       -72.1482604578 -7.21E+01
     2 OT DIIS     0.15E+00    0.1     0.00027955       -72.1482756836 -1.52E-05
     3 OT DIIS     0.15E+00    0.1     0.00030012       -72.1482770255 -1.34E-06
     4 OT DIIS     0.15E+00    0.1     0.00007919       -72.1482780827 -1.06E-06

  *** SCF run converged in     4 steps ***


  Electronic density on regular grids:        -31.9999999988        0.0000000012
  Core density on regular grids:               32.0000000000       -0.0000000000
  Total charge density on r-space grids:        0.0000000012
  Total charge density g-space grids:           0.0000000012

  Overlap energy of the core charge distribution:               0.00000001054794
  Self energy of the core charge distribution:               -186.73711017945703
  Core Hamiltonian energy:                                     53.08290196834342
  Hartree energy:                                              78.24509443559256
  Exchange-correlation energy:                                -16.73314602237389
  Dispersion energy:                                           -0.00601829533253

  Total energy:                                               -72.14827808267952

 ENERGY| Total FORCE_EVAL ( QS ) energy [hartree]            -72.148278082679525

 -------------------------------------------------------------------------------
 -                                                                             -
 -                                DBCSR STATISTICS                             -
 -                                                                             -
 -------------------------------------------------------------------------------
 COUNTER                                    TOTAL       BLAS       SMM       ACC
 flops     1 x     1 x    16                94080       0.0%    100.0%      0.0%     
 flops     4 x     1 x    16               439040       0.0%    100.0%      0.0%     
 flops     1 x    16 x     1               475488       0.0%    100.0%      0.0%     
 flops     1 x     4 x    16               501760       0.0%    100.0%      0.0%     
 flops     5 x    16 x     1               835200       0.0%    100.0%      0.0%     
 flops     1 x    16 x    16               998912       0.0%    100.0%      0.0%     
 flops    16 x    16 x     1              2414592       0.0%    100.0%      0.0%     
 flops     1 x    16 x     4              3169920       0.0%    100.0%      0.0%     
 flops     4 x    16 x     1              3615360       0.0%    100.0%      0.0%     
 flops     4 x     4 x    16              3763200       0.0%    100.0%      0.0%     
 flops     5 x    16 x     4              5568000       0.0%    100.0%      0.0%     
 flops     5 x    16 x    16              9989120       0.0%    100.0%      0.0%     
 flops     4 x    16 x    16             11986944       0.0%    100.0%      0.0%     
 flops    16 x    16 x     4             16097280       0.0%    100.0%      0.0%     
 flops     4 x    16 x     4             24102400       0.0%    100.0%      0.0%     
 flops    16 x    16 x    16             28508160       0.0%    100.0%      0.0%     
 flops inhomo. stacks                           0       0.0%      0.0%      0.0%
 flops total                       112.559456E+06       0.0%    100.0%      0.0%
 flops max/rank                     84.620224E+06       0.0%    100.0%      0.0%
 matmuls inhomo. stacks                         0       0.0%      0.0%      0.0%
 matmuls total                             174266       0.0%    100.0%      0.0%
 number of processed stacks                174266       0.0%    100.0%      0.0%
 average stack size                                     0.0       1.0       0.0
 marketing flops                   116.717360E+06
 -------------------------------------------------------------------------------
 # multiplications                           9780
 max memory usage/rank               1.608872E+09
 # max total images/rank                        5
 # max 3D layers                                1
 # MPI messages exchanged                 2738400
 MPI messages size (bytes):
  total size                       279.207424E+06
  min size                           0.000000E+00
  max size                           2.048000E+03
  average size                     101.960060E+00
 MPI breakdown and total messages size (bytes):
             size <=      128             2364716                 18164952
       128 < size <=     8192              373684                261042464
      8192 < size <=    32768                   0                        0
     32768 < size <=   131072                   0                        0
    131072 < size <=  4194304                   0                        0
   4194304 < size <= 16777216                   0                        0
  16777216 < size                               0                        0
 -------------------------------------------------------------------------------

 *** WARNING in dbcsr_mm.F:301 :: Using a non-square number of MPI ranks ***
 *** might lead to poor performance. Used ranks: 20 Suggested: 16 36     ***

 -------------------------------------------------------------------------------
 -                                                                             -
 -                      DBCSR MESSAGE PASSING PERFORMANCE                      -
 -                                                                             -
 -------------------------------------------------------------------------------
 ROUTINE             CALLS      AVE VOLUME [Bytes]
 MP_Bcast               17                     12.
 MP_Allreduce        50068                      8.
 MP_Alltoall         43937                   1682.
 MP_ISend           340878                    192.
 MP_IRecv           318938                    110.
 -------------------------------------------------------------------------------

 -------------------------------------------------------------------------------
 -                                                                             -
 -                                DBM STATISTICS                               -
 -                                                                             -
 -------------------------------------------------------------------------------
    M  x    N  x    K                                          COUNT     PERCENT
 -------------------------------------------------------------------------------

 -------------------------------------------------------------------------------
 -                                                                             -
 -                                GRID STATISTICS                              -
 -                                                                             -
 -------------------------------------------------------------------------------
 LP    KERNEL             BACKEND                              COUNT     PERCENT
 1     collocate ortho    CPU                                2508354      21.59%
 1     integrate ortho    CPU                                2327537      20.04%
 2     integrate ortho    CPU                                2219237      19.10%
 2     collocate ortho    CPU                                2183132      18.79%
 0     collocate ortho    CPU                                1122899       9.67%
 0     integrate ortho    CPU                                 978279       8.42%
 3     integrate ortho    CPU                                 275974       2.38%
 0     collocate general  CPU                                    448       0.00%
 1     integrate general  CPU                                    440       0.00%
 -------------------------------------------------------------------------------

 MEMORY| Estimated peak process memory [MiB]                                 216

 -------------------------------------------------------------------------------
 -                                                                             -
 -                         MESSAGE PASSING PERFORMANCE                         -
 -                                                                             -
 -------------------------------------------------------------------------------

 ROUTINE             CALLS      AVE VOLUME [Bytes]
 MP_Group                5
 MP_Bcast             3402                 166455.
 MP_Allreduce        14421                     53.
 MP_Sync               333
 MP_Alltoall         10048                 762638.
 MP_SendRecv         46569                  64809.
 MP_ISendRecv        42275                  71104.
 MP_Wait             42275
 MP_comm_split         328
 -------------------------------------------------------------------------------


 -------------------------------------------------------------------------------
 -                                                                             -
 -                           R E F E R E N C E S                               -
 -                                                                             -
 -------------------------------------------------------------------------------
 
 CP2K version 2025.1, the CP2K developers group (2025).
 CP2K is freely available from https://www.cp2k.org/ .
 
 T. D. Kuehne, M. Iannuzzi, M. Del Ben, V. V. Rybkin, P. Seewald, F. Stein, T. 
 Laino, R. Z. Khaliullin, O. Schuett, F. Schiffmann, D. Golze, J. Wilhelm, S. 
 Chulkov, M. H. Bani-Hashemian, V. Weber, U. Borstnik, M. Taillefumier, A. S. 
 Jakobovits, A. Lazzaro, H. Pabst, T. Mueller, R. Schade, M. Guidon, S. 
 Andermatt, N. Holmberg, G. K. Schenter, A. Hehn, A. Bussy, F. Belleflamme, G. 
 Tabacchi, A. Gloess, M. Lass, I. Bethune, C. J. Mundy, C. Plessl, M. Watkins, 
 J. VandeVondele, M. Krack, J. Hutter.
 J. Chem. Phys. 152, 194103 (2020).
 CP2K: An electronic structure and molecular dynamics software package - 
 Quickstep: Efficient and accurate electronic structure calculations.
 https://doi.org/10.1063/5.0007045

 L. Goerigk, A. Hansen, C. Bauer, S. Ehrlich, A. Najibi, S. Grimme.
 Phys. Chem. Chem. Phys. 19, 32184-32215 (2017).
 A look at the density functional theory zoo with the advanced GMTKN55 database 
 for general main group thermochemistry, kinetics and noncovalent interactions.
 https://doi.org/10.1039/C7CP04913G

 O. Schuett, P. Messmer, J. Hutter, J. VandeVondele.
 Electronic Structure Calculations on Graphics Processing Units, 173-190 (2016).
 GPU-Accelerated Sparse Matrix-Matrix Multiplication for Linear Scaling Density 
 Functional Theory.
 https://doi.org/10.1002/9781118670712.ch8

 A. Heinecke, G. Henry, M. Hutchinson, H. Pabst.
 Proceedings of Intl. Supercomputing Conference, 981-991 (2016).
 LIBXSMM: Accelerating Small Matrix Multiplications by Runtime Code Generation.
 https://doi.org/10.1109/SC.2016.83

 J. Hutter, M. Iannuzzi, F. Schiffmann, J. VandeVondele.
 WIREs Comput Mol Sci. 4, 15-25 (2014).
 CP2K: atomistic simulations of condensed matter systems.
 https://doi.org/10.1002/wcms.1159

 U. Borstnik, J. VandeVondele, V. Weber, J. Hutter.
 Parallel Comput. 40, 47-58 (2014).
 Sparse matrix multiplication: The distributed block-compressed sparse row 
 library.
 https://doi.org/10.1016/j.parco.2014.03.012

 S. Grimme, S. Ehrlich, L. Goerigk.
 J. Comput. Chem. 32, 1456 (2011).
 Effect of the damping function in dispersion corrected density functional 
 theory.
 https://doi.org/10.1002/jcc.21759

 S. Grimme, J. Antony, S. Ehrlich, H. Krieg.
 J. Chem. Phys. 132, 154104 (2010).
 A consistent and accurate ab initio parametrization of density functional 
 dispersion correction (DFT-D) for the 94 elements H-Pu.
 https://doi.org/10.1063/1.3382344

 J. VandeVondele, J. Hutter.
 J. Chem. Phys. 127, 114105 (2007).
 Gaussian basis sets for accurate calculations on molecular systems in gas and 
 condensed phases.
 https://doi.org/10.1063/1.2770708

 T. D. Kühne, M. Krack, F. R. Mohamed, M. Parrinello.
 Phys. Rev. Lett. 98, 066401 (2007).
 Efficient and accurate Car-Parrinello-like approach to Born-Oppenheimer 
 molecular dynamics.
 https://doi.org/10.1103/PhysRevLett.98.066401

 J. VandeVondele, M. Krack, F. Mohamed, M. Parrinello, T. Chassaing, J. Hutter.
 Comput. Phys. Commun. 167, 103-128 (2005).
 QUICKSTEP: Fast and accurate density functional calculations using a mixed 
 Gaussian and plane waves approach.
 https://doi.org/10.1016/j.cpc.2004.12.014

 M. Krack.
 Theor. Chem. Acc. 114, 145-152 (2005).
 Pseudopotentials for H to Kr optimized for gradient-corrected 
 exchange-correlation functionals.
 https://doi.org/10.1007/s00214-005-0655-y

 M. Frigo, S. G. Johnson.
 Proc. IEEE 93, 216-231 (2005).
 The design and implementation of FFTW3.
 https://doi.org/10.1109/JPROC.2004.840301

 J. Kolafa.
 J. Comput. Chem. 25, 335-342 (2004).
 Time-reversible always stable predictor-corrector method for molecular dynamics 
 of polarizable molecules.
 https://doi.org/10.1002/jcc.10385

 J. VandeVondele, J. Hutter.
 J. Chem. Phys. 118, 4365-4369 (2003).
 An efficient orbital transformation method for electronic structure 
 calculations.
 https://doi.org/10.1063/1.1543154

 C. Hartwigsen, S. Goedecker, J. Hutter.
 Phys. Rev. B 58, 3641-3662 (1998).
 Relativistic separable dual-space Gaussian pseudopotentials from H to Rn.
 https://doi.org/10.1103/PhysRevB.58.3641

 G. Lippert, J. Hutter, M. Parrinello.
 Mol. Phys. 92, 477-487 (1997).
 A hybrid Gaussian and plane wave density functional scheme.
 https://doi.org/10.1080/002689797170220

 S. Goedecker, M. Teter, J. Hutter.
 Phys. Rev. B 54, 1703-1710 (1996).
 Separable dual-space Gaussian pseudopotentials.
 https://doi.org/10.1103/PhysRevB.54.1703

 J. P. Perdew, K. Burke, M. Ernzerhof.
 Phys. Rev. Lett. 77, 3865-3868 (1996).
 Generalized gradient approximation made simple.
 https://doi.org/10.1103/PhysRevLett.77.3865


 -------------------------------------------------------------------------------
 -                                                                             -
 -                                T I M I N G                                  -
 -                                                                             -
 -------------------------------------------------------------------------------
 SUBROUTINE                       CALLS  ASD         SELF TIME        TOTAL TIME
                                MAXIMUM       AVERAGE  MAXIMUM  AVERAGE  MAXIMUM
 CP2K                                 1  1.0    0.055    0.057   75.688   75.689
 cp_geo_opt                           1  2.0    0.000    0.000   75.411   75.413
 geoopt_bfgs                          1  3.0    0.006    0.021   75.410   75.413
 cp_eval_at                          56  4.0    0.004    0.007   74.234   74.235
 qs_forces                           55  5.0    0.004    0.004   73.493   73.493
 qs_energies                         56  6.0    0.003    0.003   69.828   69.834
 scf_env_do_scf                      56  7.0    0.002    0.003   62.170   62.173
 scf_env_do_scf_inner_loop          379  8.0    0.008    0.024   57.016   57.147
 dbcsr_multiply_generic            9780 14.0    0.445    0.475   27.519   31.609
 rebuild_ks_matrix                  434  9.6    0.001    0.001   25.697   25.965
 qs_ks_build_kohn_sham_matrix       434 10.6    0.042    0.047   25.696   25.963
 qs_ks_update_qs_env                435  9.0    0.003    0.003   22.001   22.227
 qs_scf_new_mos                     379  9.0    0.002    0.002   21.252   21.456
 qs_scf_loop_do_ot                  379 10.0    0.002    0.002   21.251   21.454
 ot_scf_mini                        379 11.0    0.004    0.005   20.362   20.595
 qs_rho_update_rho_low              435  9.1    0.002    0.002   18.867   18.877
 calculate_rho_elec                 435 10.1    0.079    0.092   18.866   18.876
 ot_mini                            379 12.0    0.002    0.002   14.695   14.904
 grid_collocate_task_list           435 11.1    8.990   13.880    8.990   13.880
 density_rs2pw                      435 11.1    0.015    0.018    9.712   13.636
 sum_up_and_integrate               434 11.6    0.004    0.004    8.236   13.625
 integrate_v_rspace                 434 12.6    0.029    0.031    8.178   13.569
 mp_sum_l                         46553 15.0    8.855   13.306    8.855   13.306
 qs_ot_get_derivative               379 13.0    0.002    0.003   11.701   11.930
 transfer_rs2pw                    2231 12.1    0.029    0.042    7.905   11.929
 transfer_rs2pw_250                 491 12.9    0.743    0.807    7.277   11.249
 mp_sendrecv_dv                   42389 14.1    6.943   10.903    6.943   10.903
 fft_wrap_pw1pw2                   8308 14.0    0.051    0.059    9.469    9.592
 grid_integrate_task_list           434 13.6    3.841    9.226    3.841    9.226
 qs_vxc_create                      434 11.6    0.007    0.007    8.840    8.867
 xc_vxc_pw_create                   434 12.6    0.151    0.167    8.834    8.861
 make_m2s                         19560 15.0    0.157    0.173    7.957    8.201
 multiply_cannon                   9780 15.0    1.087    1.168    7.452    8.120
 fft_wrap_pw1pw2_250               4832 15.4    0.326    0.375    7.852    7.977
 fft3d_ps                          8308 16.0    3.448    3.807    7.596    7.750
 qs_ot_get_derivative_taylor        284 14.0    0.006    0.008    6.602    6.689
 make_images                      19560 16.0    1.813    2.068    6.148    6.380
 multiply_cannon_loop              9780 16.0    2.343    2.822    4.726    5.579
 xc_rho_set_and_dset_create         434 13.6    0.121    0.139    4.964    5.490
 xc_pw_derive                      2604 14.6    0.010    0.011    5.044    5.149
 mp_sum_d                          8943 13.4    3.716    5.082    3.716    5.082
 init_scf_loop                       56  8.0    0.001    0.001    4.992    4.995
 potential_pw2rs                    434 13.6    0.015    0.016    4.307    4.314
 dbcsr_finalize                   22729 14.5    0.362    1.149    2.108    3.923
 qs_energies_init_hamiltonians       56  7.0    0.001    0.001    3.901    3.902
 qs_ks_update_qs_env_forces          55  6.0    0.000    0.000    3.717    3.757
 qs_ot_get_p                        435 11.7    0.002    0.002    3.487    3.708
 xc_pw_divergence                   434 13.6    0.006    0.007    3.554    3.624
 init_scf_run                        56  7.0    0.001    0.005    3.515    3.517
 scf_env_initial_rho_setup           56  8.0    0.001    0.003    3.514    3.516
 make_images_sizes                19560 17.0    0.014    0.014    3.010    3.379
 mp_alltoall_i44                  19560 18.0    2.996    3.366    2.996    3.366
 wfi_extrapolate                     56  9.0    0.003    0.003    3.361    3.361
 dbcsr_make_dense_low             58051 17.2    0.164    0.181    0.592    3.280
 mp_alltoall_z22v                  8308 18.0    2.920    3.212    2.920    3.212
 transfer_pw2rs                    2225 14.5    0.010    0.011    3.124    3.131
 make_dense_data                  58051 18.2    0.105    0.820    0.346    3.000
 xc_functional_eval                 434 14.6    0.004    0.004    2.416    2.969
 pbe_lda_eval                       434 15.6    2.413    2.966    2.413    2.966
 ot_diis_step                       379 13.0    0.009    0.009    2.908    2.908
 dbcsr_make_images_dense          16726 16.3    0.127    0.144    0.781    2.887
 calculate_dispersion_pairpot        56  8.0    0.001    0.001    2.870    2.870
 calculate_dispersion_d3_pairpo      56  9.0    0.984    2.740    2.870    2.870
 mp_waitall_1                    668195 18.0    2.052    2.648    2.052    2.648
 dbcsr_merge_all                  19799 15.8    1.538    2.383    1.688    2.619
 dbcsr_add_d                       7526 14.4    0.005    0.007    0.190    2.599
 dbcsr_add_anytype                 7526 15.4    0.022    0.253    0.184    2.592
 transfer_pw2rs_250                 489 15.1    1.428    1.647    2.348    2.409
 qs_ot_get_derivative_diag           95 14.0    0.002    0.002    2.201    2.346
 yz_to_x                           3097 16.9    0.373    0.414    2.083    2.253
 dbcsr_iterator_start            118546 16.8    0.268    2.173    0.282    2.204
 apply_preconditioner_dbcsr         435 14.0    0.001    0.001    2.020    2.068
 apply_all                          435 15.0    0.003    0.004    2.019    2.067
 x_to_yz                           3473 17.3    0.465    0.495    1.621    1.719
 qs_ot_get_orbitals                 379 12.0    0.001    0.001    1.664    1.715
 qs_ot_p2m_taylor                   330 12.6    0.003    0.003    1.471    1.685
 -------------------------------------------------------------------------------

 The number of warnings for this run is : 2
 
 -------------------------------------------------------------------------------
  **** **** ******  **  PROGRAM ENDED AT                 2025-11-14 18:34:24.659
 ***** ** ***  *** **   PROGRAM RAN ON            node2.int.red-lion.rl.gcs-devc
 **    ****   ******    PROGRAM RAN BY                                   di97gef
 ***** **    ** ** **   PROGRAM PROCESS ID                                479060
  **** **  *******  **  PROGRAM STOPPED IN /home/di97gef/BioPhyCourse/Day2/03_CP
                                           2K_QMMM/data/CP2K-DFT/CP2K-intro
