       8
 i =        1, E =       -71.6969681394
  P         3.2750438908        2.4399727363        2.8263440766
  O         3.9425250312        1.4461550000        3.3178821663
  O         4.3579197817        2.9291277593        4.0621739535
  O         3.4369384527        3.5666035223        1.6556647983
  O         1.8850481958        2.8887605813        3.5470929978
  H         4.6207570105        3.4532694085        4.8562987901
  H         3.3559238745        4.3912231716        1.1582092639
  H         1.3455035237        3.0942972812        4.3011296001
       8
 i =        2, E =       -71.9767684458
  P         3.3093430989        2.5843448441        2.8855390317
  O         3.9100764788        1.2235541821        3.1128181687
  O         4.4801778862        2.7364441894        4.2551054550
  O         3.4503263800        3.5940636901        1.5566255885
  O         1.7840706711        2.8538402446        3.5513335357
  H         4.6387371591        3.6171819191        4.8935043033
  H         3.3438335588        4.4837657401        1.1332815342
  H         1.2854537984        3.1071091393        4.3554650193
       8
 i =        3, E =       -72.0540398319
  P         3.3735249113        2.8040825424        2.9663846984
  O         3.8698441465        1.0647985556        2.8628181687
  O         4.5952438953        2.5747298673        4.4738421521
  O         3.4378799936        3.6060805705        1.4079698929
  O         1.6664760010        2.8095743872        3.5096202171
  H         4.6911853138        3.6082019405        4.9947869097
  H         3.3164557311        4.5994119769        1.1391439729
  H         1.2617809949        3.1342766586        4.3933042062
       8
 i =        4, E =       -72.0752460957
  P         3.3722947788        2.8101045780        2.9594380359
  O         3.9046149170        1.0905699625        2.8745562768
  O         4.5526119437        2.7684099223        4.4581563287
  O         3.4080121367        3.5633235005        1.3193107615
  O         1.6048619921        2.8076736330        3.4265109276
  H         4.7343983930        3.3905149497        5.1207561918
  H         3.3015587261        4.6433822535        1.2055642885
  H         1.3102754966        3.1440937238        4.3885447725
       8
 i =        5, E =       -72.0943186708
  P         3.3833939393        2.7622080651        2.9536047553
  O         3.9201778318        1.0789678686        2.8958658561
  O         4.5266131522        2.7651927130        4.4742711317
  O         3.3976702048        3.5642555275        1.3385259863
  O         1.6330885981        2.8483708566        3.4038642060
  H         4.7113921227        3.4829407214        5.1442241322
  H         3.3015311586        4.5977737374        1.2031031016
  H         1.3225439300        3.1238860707        4.3471161911
       8
 i =        6, E =       -72.1070144522
  P         3.4149800237        2.7026330907        2.9409696632
  O         3.9550456210        1.0411589008        2.8973531446
  O         4.4815705029        2.7835312787        4.5270120892
  O         3.3885886947        3.5300848580        1.3016919184
  O         1.6412689020        2.8871355740        3.3233753640
  H         4.6562237034        3.5786348027        5.1958799823
  H         3.2943825093        4.5737719943        1.2580874018
  H         1.3799356433        3.0989895653        4.2958987059
       8
 i =        7, E =       -72.1172230273
  P         3.4632756891        2.6201876073        2.9259551933
  O         4.0106070660        0.9942092109        2.9032891521
  O         4.4298192891        2.8525238874        4.5834977809
  O         3.4072450517        3.5203322529        1.2822386649
  O         1.6601976480        2.9949267029        3.2070046457
  H         4.5356459679        3.6699705183        5.2806836083
  H         3.2790201843        4.5107443242        1.3206134017
  H         1.4519678305        3.0330354326        4.2179547495
       8
 i =        8, E =       -72.1195357637
  P         3.5008711874        2.5833710598        2.9172807177
  O         4.0416914325        0.9520312823        2.8856410401
  O         4.4315895619        2.8845987919        4.6049569438
  O         3.4161989083        3.4759892733        1.2209557633
  O         1.6880123803        3.0911725090        3.1492317763
  H         4.4438018286        3.7002203388        5.3242817367
  H         3.2612258141        4.5242499784        1.4306141137
  H         1.4657373362        2.9750252147        4.1541394120
       8
 i =        9, E =       -72.1256779830
  P         3.5007078829        2.6025022614        2.9245745755
  O         4.0413182247        0.9540959927        2.8658922783
  O         4.4710968334        2.8788196459        4.5769497821
  O         3.4285825231        3.5028697550        1.2411247869
  O         1.7022915410        3.0989700579        3.1901689080
  H         4.4268030473        3.6627875761        5.2975520312
  H         3.2606567487        4.5175420230        1.4148457366
  H         1.4273673410        2.9750182414        4.1517950808
       8
 i =       10, E =       -72.1302280304
  P         3.5094391748        2.5933410079        2.9284239522
  O         4.0440652661        0.9386531226        2.8485828709
  O         4.5078375528        2.9052793549        4.5407130223
  O         3.4609764986        3.5341428474        1.2663046013
  O         1.7482044169        3.2232399112        3.2045209506
  H         4.3279653613        3.6397551025        5.2666476620
  H         3.2467395496        4.4918830260        1.4527689191
  H         1.4023783583        2.8883052222        4.1504541810
       8
 i =       11, E =       -72.1350301814
  P         3.5168147660        2.5769060311        2.9292863610
  O         4.0510394471        0.9273515195        2.8373632893
  O         4.5541407140        2.9203073155        4.4870109008
  O         3.5160983475        3.5514988183        1.2920577861
  O         1.7917856380        3.2767309080        3.2446579418
  H         4.2494189906        3.6166845246        5.2114138845
  H         3.2223772353        4.4985056490        1.5223897875
  H         1.3688369468        2.8759578598        4.1271945220
       8
 i =       12, E =       -72.1364816346
  P         3.4974091885        2.5544767217        2.9330336781
  O         4.0508701546        0.9253600794        2.8212150982
  O         4.5805334377        2.9334986986        4.4179670713
  O         3.5650340126        3.5823193087        1.3523528967
  O         1.8125650535        3.2411107830        3.3275121195
  H         4.2153305275        3.5739792081        5.1027681885
  H         3.1951039354        4.5182705719        1.6053781692
  H         1.3368023922        2.9242227708        4.1222668973
       8
 i =       13, E =       -72.1406148179
  P         3.5129905306        2.5265003144        2.9311951674
  O         4.0722843995        0.9012909671        2.7941081382
  O         4.6118559976        2.9551165394        4.3888478792
  O         3.5828942566        3.5981043472        1.3676421939
  O         1.8543535759        3.3143905005        3.3382107145
  H         4.1303514946        3.5757512985        5.0728534581
  H         3.1866682855        4.5061885742        1.6624246550
  H         1.3170786025        2.8701769833        4.0933431064
       8
 i =       14, E =       -72.1408804213
  P         3.5093246859        2.5088277800        2.9283655216
  O         4.0689526179        0.8966711057        2.7980025705
  O         4.5900162598        2.9787116620        4.3900954453
  O         3.5815250205        3.6004490534        1.3742778360
  O         1.8641700279        3.3501275071        3.3298830563
  H         4.1412077127        3.5859520922        5.0574919062
  H         3.1967716431        4.4979739216        1.6808521882
  H         1.3134735160        2.8524351394        4.0715781315
       8
 i =       15, E =       -72.1420344375
  P         3.5058385393        2.5026652990        2.9339768989
  O         4.0635122523        0.8933959489        2.8035243212
  O         4.5957284303        2.9823865794        4.3844027893
  O         3.5770325854        3.5995902710        1.3830939126
  O         1.8537652052        3.3293163843        3.3289083999
  H         4.1247693192        3.6002789773        5.0502856844
  H         3.2042665682        4.4942249661        1.6898236822
  H         1.3219939626        2.8678769944        4.0687237847
       8
 i =       16, E =       -72.1424051218
  P         3.5001145124        2.4982040346        2.9417680783
  O         4.0536195092        0.8864863817        2.7980588585
  O         4.6090631219        2.9864958856        4.3680086463
  O         3.5883617453        3.6083923249        1.4034442726
  O         1.8595936399        3.3307397014        3.3529218796
  H         4.1062539364        3.6010525564        5.0159668129
  H         3.1963320953        4.4979177416        1.7258216219
  H         1.3078569621        2.8582717996        4.0685052216
       8
 i =       17, E =       -72.1429826824
  P         3.4959993056        2.4968898233        2.9503523108
  O         4.0363721327        0.8794859510        2.8000929374
  O         4.6022000466        2.9877657662        4.3787229897
  O         3.5958650941        3.6131315152        1.4190621426
  O         1.8500511285        3.3164572026        3.3523945428
  H         4.1091753148        3.6216854475        5.0020983781
  H         3.1980633164        4.5004588963        1.7501951302
  H         1.3009522337        2.8405349206        4.0614927822
       8
 i =       18, E =       -72.1445309304
  P         3.4827250393        2.4769632885        2.9746624686
  O         3.9651482977        0.8475625949        2.8090570203
  O         4.5785879760        3.0051662173        4.4027339873
  O         3.6506824385        3.6383536714        1.4826027412
  O         1.8315496057        3.2989046588        3.3475667472
  H         4.0767730987        3.7086418048        4.9369071473
  H         3.2153159004        4.4997089142        1.8495676812
  H         1.2702376577        2.7648672156        4.0132723161
       8
 i =       19, E =       -72.1453892128
  P         3.4748792229        2.4733484578        2.9892922196
  O         3.9250245807        0.8404165657        2.8241213481
  O         4.5639102849        3.0111890334        4.4227896779
  O         3.6467316270        3.6409067389        1.5082393903
  O         1.8168855552        3.2749795411        3.3432055452
  H         4.0834729383        3.7660338179        4.9159132373
  H         3.2459734010        4.4972921112        1.8708737230
  H         1.2538875427        2.7250682080        3.9971812009
       8
 i =       20, E =       -72.1457140364
  P         3.4632083276        2.4808870880        3.0084258658
  O         3.8459249636        0.8333967868        2.8468422227
  O         4.5285383515        3.0185635644        4.4729508956
  O         3.6359393436        3.6336785225        1.5260382112
  O         1.7773041738        3.2063234931        3.3228362319
  H         4.1215440317        3.8764037919        4.9019580071
  H         3.2893589637        4.5013447723        1.8882855964
  H         1.2271324654        2.6460193563        3.9746345410
       8
 i =       21, E =       -72.1466120372
  P         3.4599570599        2.4826142409        3.0026814736
  O         3.8484867154        0.8439499664        2.8490427768
  O         4.5299788402        3.0284564979        4.4569771775
  O         3.6298301605        3.6304765985        1.5191404061
  O         1.7773299764        3.1972428742        3.3307169429
  H         4.1366819977        3.8579572933        4.9076911364
  H         3.2848705045        4.5098891411        1.8780764502
  H         1.2231009090        2.6448661778        3.9856704771
       8
 i =       22, E =       -72.1468654836
  P         3.4416086740        2.4765871484        3.0139003647
  O         3.7914553817        0.8400214540        2.8608891585
  O         4.5172408577        3.0531778202        4.4477077646
  O         3.6425831259        3.6401492199        1.5517084272
  O         1.7534340243        3.1460405353        3.3440606825
  H         4.1502136965        3.9062501108        4.8649144238
  H         3.2997893507        4.5298898213        1.9194519312
  H         1.1896528910        2.5791653539        3.9792647324
       8
 i =       23, E =       -72.1471260108
  P         3.4261072946        2.4790544124        3.0269466717
  O         3.7445669405        0.8312770484        2.8718521342
  O         4.5133998884        3.0502825041        4.4498255071
  O         3.6349190286        3.6423025293        1.5675660489
  O         1.7297619639        3.1238024483        3.3461896451
  H         4.1697381368        3.9253041509        4.8455596656
  H         3.3098248251        4.5422417617        1.9326634555
  H         1.1726736514        2.5492637144        3.9797879338
       8
 i =       24, E =       -72.1474284474
  P         3.4106654833        2.4867171698        3.0388352691
  O         3.7042169037        0.8241079342        2.8892275937
  O         4.5201547318        3.0320038482        4.4479522028
  O         3.6015599777        3.6290751192        1.5569235420
  O         1.6910767045        3.1000698918        3.3340843938
  H         4.2124423137        3.9170463422        4.8491222562
  H         3.3181454308        4.5541247191        1.9027236536
  H         1.1670533917        2.5336062610        3.9948639670
       8
 i =       25, E =       -72.1475465442
  P         3.4173179017        2.4756902869        3.0346282257
  O         3.7284241347        0.8187826448        2.8815720350
  O         4.5283002127        3.0313878318        4.4398691135
  O         3.6156816198        3.6336697362        1.5588677859
  O         1.7068745773        3.1292615497        3.3366209615
  H         4.1872624723        3.8995643109        4.8460216995
  H         3.3076007614        4.5449810374        1.9091702179
  H         1.1768264577        2.5534855105        3.9899226569
       8
 i =       26, E =       -72.1475778012
  P         3.4081029317        2.4585396663        3.0430209670
  O         3.6986497372        0.8085670655        2.8967645993
  O         4.5184251273        3.0418958478        4.4409368064
  O         3.6427933468        3.6385499835        1.5847807806
  O         1.6958003176        3.1190892100        3.3382751224
  H         4.1788032431        3.9286279073        4.8200044188
  H         3.3177076145        4.5405936547        1.9347345913
  H         1.1651793138        2.5226916570        3.9789665975
       8
 i =       27, E =       -72.1478599249
  P         3.4089072941        2.4711478542        3.0387654476
  O         3.7034724252        0.8154942130        2.8901790462
  O         4.5183635061        3.0334054367        4.4443773688
  O         3.6263548731        3.6335922349        1.5679205658
  O         1.6946999192        3.1163437689        3.3387569235
  H         4.1904327816        3.9162609426        4.8358054275
  H         3.3181778010        4.5449133848        1.9111015048
  H         1.1680176995        2.5320502418        3.9902539197
       8
 i =       28, E =       -72.1478926537
  P         3.4089827354        2.4730056551        3.0360774019
  O         3.7036396571        0.8174687275        2.8880859130
  O         4.5179861730        3.0327640977        4.4435725887
  O         3.6253174050        3.6308695446        1.5608129129
  O         1.6943412664        3.1162028975        3.3388442871
  H         4.1912901500        3.9136284759        4.8385235783
  H         3.3202128814        4.5451609146        1.9021482191
  H         1.1698519450        2.5338784125        3.9928109885
       8
 i =       29, E =       -72.1479212271
  P         3.4086355784        2.4726683730        3.0346320156
  O         3.7004577442        0.8175077887        2.8864344381
  O         4.5188069002        3.0323749048        4.4420131559
  O         3.6288952966        3.6297053861        1.5575890770
  O         1.6929509389        3.1151468920        3.3400941351
  H         4.1896417583        3.9123087369        4.8366227682
  H         3.3241530893        4.5458437014        1.8957565937
  H         1.1704405395        2.5313597716        3.9940742896
       8
 i =       30, E =       -72.1479444800
  P         3.4112190326        2.4699760956        3.0329996242
  O         3.7022041995        0.8177977413        2.8845213266
  O         4.5185825595        3.0340600553        4.4433482056
  O         3.6303239221        3.6279286143        1.5547668309
  O         1.6945718449        3.1156818257        3.3402806239
  H         4.1834616237        3.9144330550        4.8371042000
  H         3.3285543513        4.5461028755        1.8913058275
  H         1.1727571417        2.5283379944        3.9918625745
       8
 i =       31, E =       -72.1479628121
  P         3.4114145025        2.4689582864        3.0344837587
  O         3.6980794362        0.8174610628        2.8842361173
  O         4.5210584936        3.0356863791        4.4425852813
  O         3.6281603637        3.6277037818        1.5556905312
  O         1.6924063603        3.1137485381        3.3414646807
  H         4.1803783384        3.9144190033        4.8348570445
  H         3.3336903070        4.5491640630        1.8889872055
  H         1.1719383822        2.5211273623        3.9904395170
       8
 i =       32, E =       -72.1479790303
  P         3.4145046304        2.4705635197        3.0354809533
  O         3.7008716561        0.8188320874        2.8824058442
  O         4.5236541868        3.0362064580        4.4441382112
  O         3.6301131332        3.6293120031        1.5574398123
  O         1.6947795358        3.1149248393        3.3429575987
  H         4.1749438136        3.9105094572        4.8370026965
  H         3.3369155542        4.5509234084        1.8874772277
  H         1.1732851576        2.5198764011        3.9893647539
       8
 i =       33, E =       -72.1479934902
  P         3.4162278940        2.4723431234        3.0366926324
  O         3.7006805934        0.8200635125        2.8827883916
  O         4.5224388894        3.0364943802        4.4479715491
  O         3.6290845639        3.6289028569        1.5583706857
  O         1.6954759614        3.1146076389        3.3420971368
  H         4.1722363641        3.9098256494        4.8415124948
  H         3.3404469278        4.5524752137        1.8868066177
  H         1.1750843585        2.5188657709        3.9878626165
       8
 i =       34, E =       -72.1480021273
  P         3.4176502273        2.4736817006        3.0372775406
  O         3.7007740734        0.8214390820        2.8830230196
  O         4.5219139206        3.0368828412        4.4492264277
  O         3.6285212730        3.6277543512        1.5587656877
  O         1.6966882603        3.1149617568        3.3414525939
  H         4.1682174119        3.9067222179        4.8456062189
  H         3.3443885935        4.5542196520        1.8859950943
  H         1.1777125337        2.5188309602        3.9866822115
       8
 i =       35, E =       -72.1480066542
  P         3.4179984827        2.4744111089        3.0372959838
  O         3.7001305352        0.8220651182        2.8827318769
  O         4.5210914122        3.0367035086        4.4493493651
  O         3.6289307156        3.6268043614        1.5588117301
  O         1.6972605074        3.1149908711        3.3412231204
  H         4.1648714343        3.9043329395        4.8479580065
  H         3.3481238206        4.5549732557        1.8851871386
  H         1.1790244387        2.5177546945        3.9862131370
       8
 i =       36, E =       -72.1480131378
  P         3.4181191031        2.4746269411        3.0370653434
  O         3.6996965435        0.8224528952        2.8819659213
  O         4.5201792306        3.0367194186        4.4480795398
  O         3.6295290393        3.6253331661        1.5587087857
  O         1.6979898088        3.1153211769        3.3410009113
  H         4.1585493954        3.8999560593        4.8515177228
  H         3.3543019983        4.5555991552        1.8846337851
  H         1.1807870005        2.5164846309        3.9854811636
       8
 i =       37, E =       -72.1480195926
  P         3.4178549524        2.4745357556        3.0369988737
  O         3.6994602156        0.8224816537        2.8813582130
  O         4.5193628352        3.0371416511        4.4465387071
  O         3.6299849639        3.6241527750        1.5585489005
  O         1.6981969635        3.1152531604        3.3410492308
  H         4.1523498797        3.8955983102        4.8558922982
  H         3.3609384208        4.5558380699        1.8850148952
  H         1.1812854715        2.5149048757        3.9848591482
       8
 i =       38, E =       -72.1480308604
  P         3.4175054195        2.4744488766        3.0375542065
  O         3.6994905611        0.8222246624        2.8805836429
  O         4.5184348466        3.0379589521        4.4441909678
  O         3.6306415683        3.6221597946        1.5581597705
  O         1.6980951114        3.1150813624        3.3412236953
  H         4.1391263105        3.8848830213        4.8680505864
  H         3.3760527192        4.5568619334        1.8865088182
  H         1.1817136405        2.5123696397        3.9835359742
       8
 i =       39, E =       -72.1480453776
  P         3.4173015593        2.4742329235        3.0386097582
  O         3.6998620599        0.8218150331        2.8804495390
  O         4.5178729390        3.0390483438        4.4433277357
  O         3.6309848127        3.6210347210        1.5579552686
  O         1.6975959927        3.1144103379        3.3418000466
  H         4.1267598167        3.8733951722        4.8830290767
  H         3.3920861910        4.5584786885        1.8892032368
  H         1.1804007828        2.5094579901        3.9819695892
       8
 i =       40, E =       -72.1480683439
  P         3.4167177743        2.4736281001        3.0422194917
  O         3.7010660621        0.8203156541        2.8809215826
  O         4.5174567007        3.0410648725        4.4428634806
  O         3.6314258304        3.6193970501        1.5577827796
  O         1.6955138993        3.1126452436        3.3435373842
  H         4.0915341835        3.8349630112        4.9323698064
  H         3.4415670148        4.5651744706        1.8985575759
  H         1.1751424136        2.5024030431        3.9770080354
       8
 i =       41, E =       -72.1481015604
  P         3.4156353767        2.4733443813        3.0421102268
  O         3.7009537756        0.8199287563        2.8821878338
  O         4.5182031253        3.0406154234        4.4446018848
  O         3.6308188046        3.6223999226        1.5585141503
  O         1.6943959713        3.1121976572        3.3437905695
  H         4.1017470167        3.8382459285        4.9289355739
  H         3.4344250798        4.5647104056        1.9004135427
  H         1.1718042810        2.5047134684        3.9778974037
       8
 i =       42, E =       -72.1481382828
  P         3.4152262693        2.4733391879        3.0434419956
  O         3.7010441215        0.8197716672        2.8828498230
  O         4.5197924002        3.0401680568        4.4472362610
  O         3.6300497135        3.6251765810        1.5594435484
  O         1.6933237913        3.1121054914        3.3445666492
  H         4.0917150412        3.8180594770        4.9519560224
  H         3.4558761964        4.5704338890        1.9068129640
  H         1.1673602244        2.5037657937        3.9745269842
       8
 i =       43, E =       -72.1481637821
  P         3.4146060695        2.4744714347        3.0452363611
  O         3.7002482335        0.8214562896        2.8822230592
  O         4.5221942573        3.0392188751        4.4520527121
  O         3.6297428237        3.6300842680        1.5610689345
  O         1.6925710300        3.1126889099        3.3456280050
  H         4.0568196727        3.7621481429        5.0113980514
  H         3.5180308838        4.5850846575        1.9208669670
  H         1.1596505292        2.4992969058        3.9638973315
       8
 i =       44, E =       -72.1481916410
  P         3.4152468301        2.4753437288        3.0429140177
  O         3.6993909581        0.8229056740        2.8811071354
  O         4.5228806074        3.0372098212        4.4523952307
  O         3.6302946488        3.6306431855        1.5607849717
  O         1.6943554075        3.1148169023        3.3439930069
  H         4.0705200120        3.7766570214        4.9886329745
  H         3.4971672903        4.5819281159        1.9157026936
  H         1.1635000159        2.5029711757        3.9647383510
       8
 i =       45, E =       -72.1482087981
  P         3.4144387020        2.4755429493        3.0429171646
  O         3.6991560914        0.8232517824        2.8807899626
  O         4.5225546680        3.0374616906        4.4519016929
  O         3.6310290180        3.6301801235        1.5604039929
  O         1.6941625978        3.1146967221        3.3437141749
  H         4.0614140422        3.7642576677        5.0005492914
  H         3.5102983066        4.5817852905        1.9182833698
  H         1.1617736320        2.5012875192        3.9622785730
       8
 i =       46, E =       -72.1482173201
  P         3.4121003491        2.4756127796        3.0426333379
  O         3.6972422787        0.8248323731        2.8787874801
  O         4.5224636890        3.0385679261        4.4506837331
  O         3.6317948124        3.6295607321        1.5602779628
  O         1.6939996522        3.1141094837        3.3424741187
  H         4.0299335320        3.7187761387        5.0395392996
  H         3.5579083556        4.5835630772        1.9292224279
  H         1.1559865601        2.4943110986        3.9509096677
       8
 i =       47, E =       -72.1482368244
  P         3.4125697496        2.4749422635        3.0421050952
  O         3.6976113872        0.8238849754        2.8790033651
  O         4.5218351490        3.0383241818        4.4498647501
  O         3.6316819116        3.6283481475        1.5598827514
  O         1.6941877743        3.1137964802        3.3423196749
  H         4.0425686508        3.7379556425        5.0194490431
  H         3.5367071711        4.5794366183        1.9247346302
  H         1.1584875010        2.4960231614        3.9545925421
       8
 i =       48, E =       -72.1482445274
  P         3.4123186971        2.4742877702        3.0420158571
  O         3.6972130019        0.8235181725        2.8782772262
  O         4.5219858845        3.0380590837        4.4498949985
  O         3.6316318271        3.6281664539        1.5600014615
  O         1.6940937600        3.1135270247        3.3420118245
  H         4.0367660864        3.7283113604        5.0255421645
  H         3.5457253090        4.5792393308        1.9270964930
  H         1.1574308932        2.4942882918        3.9517990556
       8
 i =       49, E =       -72.1482605197
  P         3.4119746771        2.4716675950        3.0422599294
  O         3.6965392609        0.8221885558        2.8760083877
  O         4.5219736048        3.0381808085        4.4503352570
  O         3.6314962464        3.6272098735        1.5606601196
  O         1.6938745772        3.1113222555        3.3419965272
  H         4.0130972571        3.6898777875        5.0514940131
  H         3.5829597156        4.5786806807        1.9359804022
  H         1.1528808542        2.4860069562        3.9415853004
       8
 i =       50, E =       -72.1482671927
  P         3.4122759449        2.4709738077        3.0424125729
  O         3.6969868817        0.8212791950        2.8759323323
  O         4.5217645336        3.0378599071        4.4505213040
  O         3.6315806078        3.6269323768        1.5606336029
  O         1.6936452217        3.1111472168        3.3420554777
  H         4.0115769944        3.6851592249        5.0530298856
  H         3.5855148476        4.5775680142        1.9360222112
  H         1.1529102103        2.4852630425        3.9409743579
       8
 i =       51, E =       -72.1482732080
  P         3.4125869163        2.4701062053        3.0429568609
  O         3.6975865916        0.8202493370        2.8758545729
  O         4.5212852038        3.0381419773        4.4508482526
  O         3.6317996956        3.6267176248        1.5607618615
  O         1.6931278152        3.1104341504        3.3424563762
  H         4.0024961052        3.6665254652        5.0654433979
  H         3.6011638272        4.5769404526        1.9380607194
  H         1.1517208363        2.4821067577        3.9380918226
       8
 i =       52, E =       -72.1482766835
  P         3.4128723371        2.4704810333        3.0433765099
  O         3.6979907368        0.8203865195        2.8765687890
  O         4.5208152134        3.0390293626        4.4508406306
  O         3.6319145328        3.6269598779        1.5608962151
  O         1.6928263224        3.1099332854        3.3431406426
  H         3.9978172446        3.6545507274        5.0742424788
  H         3.6111704898        4.5774443726        1.9381855287
  H         1.1513940659        2.4800728798        3.9374150732
       8
 i =       53, E =       -72.1482778981
  P         3.4130957788        2.4711462246        3.0436402257
  O         3.6980098517        0.8205727051        2.8773446767
  O         4.5209701784        3.0393696328        4.4507030766
  O         3.6320735750        3.6274104247        1.5609832103
  O         1.6925837629        3.1102781533        3.3432843333
  H         3.9956788566        3.6470225716        5.0797479900
  H         3.6166100829        4.5783191923        1.9375235629
  H         1.1518519602        2.4794482091        3.9373528509
       8
 i =       54, E =       -72.1482781452
  P         3.4131117087        2.4715612004        3.0434933379
  O         3.6978436044        0.8208470455        2.8776177437
  O         4.5211089608        3.0395913961        4.4504193272
  O         3.6320566864        3.6275905821        1.5609857368
  O         1.6926874081        3.1103155667        3.3432757511
  H         3.9969213241        3.6481832202        5.0790101370
  H         3.6152413392        4.5787468080        1.9368319687
  H         1.1524430262        2.4796893227        3.9379440438
       8
 i =       55, E =       -72.1482780827
  P         3.4131117087        2.4715612004        3.0434933379
  O         3.6978436044        0.8208470455        2.8776177437
  O         4.5211089608        3.0395913961        4.4504193272
  O         3.6320566864        3.6275905821        1.5609857368
  O         1.6926874081        3.1103155667        3.3432757511
  H         3.9969213241        3.6481832202        5.0790101370
  H         3.6152413392        4.5787468080        1.9368319687
  H         1.1524430262        2.4796893227        3.9379440438
